 # Version information for this restart file 
 # current date 2023-03-25 19:02:18.962
 # current working dir /mnt/scratch2/users/40265864/MSc_ML_MM/ln_replacements/xyz/Dy_L9_L25_DMF_DMF/geometry_optimisation/run-6
 # Program compiled at                              Mon 24 Oct 18:14:20 BST 2022
 # Program compiled on                          login1.pri.kelvin2.alces.network
 # Program compiled for                                                    local
 # Source code revision number                                         svn:17462
 &GLOBAL
   PRINT_LEVEL  LOW
   PROJECT_NAME molecule_name
   RUN_TYPE  GEO_OPT
 &END GLOBAL
 &MOTION
   &GEO_OPT
     OPTIMIZER  BFGS
     MAX_DR     5.0000000000000000E-01
     MAX_FORCE     5.0000000000000000E-01
     RMS_DR     5.0000000000000003E-02
     RMS_FORCE     5.0000000000000003E-02
     STEP_START_VAL  4
   &END GEO_OPT
 &END MOTION
 &FORCE_EVAL
   METHOD  QS
   &DFT
     BASIS_SET_FILE_NAME ../BASIS_MOLOPT_UCL
     BASIS_SET_FILE_NAME BASIS_SET
     POTENTIAL_FILE_NAME ../POTENTIAL
     UKS  T
     MULTIPLICITY  6
     CHARGE  3
     &SCF
       MAX_SCF  50
       EPS_SCF     5.0000000000000002E-05
       SCF_GUESS  RESTART
       &OT  T
         MINIMIZER  DIIS
         PRECONDITIONER  FULL_KINETIC
       &END OT
       &OUTER_SCF  T
         EPS_SCF     5.0000000000000002E-05
         MAX_SCF  20
       &END OUTER_SCF
     &END SCF
     &MGRID
       NGRIDS  2
       CUTOFF     4.0000000000000000E+02
       REL_CUTOFF     5.0000000000000000E+01
     &END MGRID
     &XC
       DENSITY_CUTOFF     1.0000000000000000E-10
       GRADIENT_CUTOFF     1.0000000000000000E-10
       TAU_CUTOFF     1.0000000000000000E-10
       &XC_FUNCTIONAL  NO_SHORTCUT
         &PBE  T
         &END PBE
       &END XC_FUNCTIONAL
     &END XC
   &END DFT
   &SUBSYS
     &CELL
       A     1.6000000000000000E+01    0.0000000000000000E+00    0.0000000000000000E+00
       B     0.0000000000000000E+00    1.7000000000000000E+01    0.0000000000000000E+00
       C     0.0000000000000000E+00    0.0000000000000000E+00    1.5000000000000002E+01
       PERIODIC  NONE
       MULTIPLE_UNIT_CELL  1 1 1
     &END CELL
     &COORD
C    2.6562693337335426E+00    6.8154745939425521E-01    8.2806210670593450E-01
C    1.7051382415496934E+00   -4.4580090911104953E-01    2.0619933724755202E-01
C    2.0578464206310056E+00   -8.5184530686075299E-01   -1.3005204417323839E+00
O    9.1707041753871665E-01   -2.0648759277346854E-01   -2.2377608301683352E+00
C    1.2498119462457344E+00    1.2692432005120264E+00   -2.1561887376449849E+00
C    5.1940305575477319E-01    2.2895179833026047E+00   -1.3360404770768048E+00
C    9.0865426390294990E-01    3.7519901093423331E+00   -1.3757574083938275E+00
C    2.0192977609019525E+00    4.2341865693169627E+00   -2.2822029192913775E+00
C    2.7246280433833268E+00    3.1879764230262282E+00   -3.0243343132006348E+00
C    2.3816406801967078E+00    1.7494504224832805E+00   -2.9528245333155545E+00
C    3.1226228903983961E+00    1.0598130850479310E+00   -4.0999258385324167E+00
N    2.8261707593201035E+00   -3.3417155101925966E-01   -4.4848088914697000E+00
C    3.6640436370573126E+00   -7.8664596203905879E-01   -5.6055998650005314E+00
C    3.1359485486402727E+00   -1.8822478889755017E+00   -6.5265493179774188E+00
C    1.7622046230255426E+00   -2.3785997323527903E+00   -6.6176102558731760E+00
C    1.4908094211801768E+00   -3.3389090394715066E+00   -7.7555152913104886E+00
C    2.5951376833553752E+00   -3.6973895914593569E+00   -8.7233782714497288E+00
C    3.9781731690443549E+00   -3.1178919147230042E+00   -8.6211894354131342E+00
C    4.1949530405553377E+00   -2.1773255625952044E+00   -7.5162439762927455E+00
C    5.3509548550249484E+00   -1.2242070021004521E+00   -7.2160203190184742E+00
N    4.9975201855528040E+00   -3.5689170983170182E-01   -6.0647638996627267E+00
Dy    6.1948186536592802E+00    1.3486084242316958E+00   -5.2106194336208658E+00
N    3.9696737475860742E+00    2.0648189962418733E+00   -4.8482194395478286E+00
C    3.7359019637515924E+00    3.3739216555193283E+00   -4.1668660624756830E+00
N    4.2536702266568955E+00    4.7114966825327169E+00   -4.4769134934240595E+00
C    5.4853616103276384E+00    4.7249125165028456E+00   -5.2726900368965799E+00
N    6.5110767605558664E+00    3.6432933507668745E+00   -5.3398735875475349E+00
C    7.6094561338219870E+00    4.1185120223888836E+00   -6.2220808235931750E+00
N    8.6939443998050354E+00    3.4575652250188691E+00   -6.9669101748078512E+00
C    8.4540923230363756E+00    2.0683177546488416E+00   -7.3745704574885167E+00
N    7.4027770389869705E+00    1.1210204772572745E+00   -6.9657359488477963E+00
C    7.3707145081543564E+00   -1.7017227561347197E-02   -7.9186066699876800E+00
N    6.5198397741903413E+00   -1.2022814663323422E+00   -8.1064310893560663E+00
C    8.5025450478232312E+00    1.9947211492003700E-01   -8.9239445056697573E+00
C    9.1945108370925013E+00    1.4544789982463746E+00   -8.5658049637774916E+00
C    1.0136850967296919E+01    2.0748924165158815E+00   -9.5002831988306973E+00
C    1.0528486277901765E+01    1.2781790268615552E+00   -1.0723894821882238E+01
C    9.8471689275969130E+00   -4.1397268636853266E-02   -1.1041105405607409E+01
C    8.7439097405880144E+00   -5.7084771634418541E-01   -1.0150616795445170E+01
O    1.0571059463941618E+01    3.4774060767462416E+00   -9.1683996007100763E+00
C    1.2015417676792628E+01    3.4171936734023238E+00   -8.4630102912368805E+00
C    1.1839401719827638E+01    3.1616841978316206E+00   -6.8909280119953582E+00
C    1.1423463536959806E+01    4.5127333327555563E+00   -6.1655061234314408E+00
C    1.2930969079407591E+01    2.3105333781738087E+00   -9.1321830841726825E+00
C    1.3456085297572409E+01    2.8170740439657118E+00   -1.0551313734752810E+01
C    7.3162047891069362E+00    5.6050118732472818E+00   -6.5565098392183536E+00
C    5.9911430412393170E+00    5.9840552474973263E+00   -6.0107120309374711E+00
C    5.4514342578226405E+00    7.3807210167135899E+00   -6.0722568568955548E+00
C    6.1542248161153728E+00    8.6019364593344623E+00   -6.7311665960209055E+00
C    7.5253353765381288E+00    8.0784660974253395E+00   -7.2906646782868778E+00
C    8.1022309223219899E+00    6.6419857582163582E+00   -7.2394786943591871E+00
O    4.0852956527451711E+00    7.5192185989649909E+00   -5.4031620500325674E+00
C    3.1039263522776177E+00    7.1001053581654423E+00   -6.6146647373970948E+00
C    1.6859684218981363E+00    7.3881949603617842E+00   -5.9812077901341762E+00
C    1.4209305630275790E+00    6.5268212858061840E+00   -4.6643837498786649E+00
C    3.3791406850662331E+00    8.0926233990439673E+00   -7.8661818434492536E+00
C    4.1816397778990906E+00    7.3262750897118112E+00   -9.0438740894758176E+00
O    8.3042499430154368E+00    1.9227333441611871E+00   -4.5511924329009776E+00
C    9.4959321648111263E+00    1.2214092493528490E+00   -4.6790316942008836E+00
N    1.0236300476769525E+01    9.3283974554748839E-01   -3.4602346824083954E+00
C    9.5775872097625392E+00    1.2374092356262425E+00   -2.0737284472827260E+00
C    1.1730000100292303E+01    5.3132826804435407E-01   -3.6038596505747789E+00
O    5.1856042826654001E+00    2.2671751827555018E+00   -7.0861584711485852E+00
C    3.9365159389608393E+00    2.1068623781870714E+00   -7.6828424991289861E+00
N    3.8872327721875339E+00    2.4398832179215297E+00   -9.0967986301075534E+00
C    5.2183878013255551E+00    2.8730387441375340E+00   -9.7770780392573133E+00
C    2.6084295663672341E+00    2.2364470694932979E+00   -9.9337838434499766E+00
N    6.1776675765157760E+00    1.8953119308864239E+00   -2.8608833325798564E+00
C    5.9225145228961420E+00    7.0021370282115281E-01   -2.1040957091943686E+00
C    6.1475131600841708E+00   -6.6239622325587533E-01   -2.8582581995952747E+00
N    6.9282170844442801E+00   -5.4520049762294998E-01   -4.0830396453733364E+00
C    7.3674047745211437E+00   -1.7561387748784028E+00   -4.7551831614673379E+00
C    7.1306550993483109E+00   -3.1274297729751557E+00   -4.1591977052570934E+00
C    6.2706680242482662E+00   -3.2232322500381119E+00   -2.9045970347406178E+00
C    5.7304711475524179E+00   -1.9603107091999439E+00   -2.2734557448244117E+00
C    5.7198755788929034E+00    7.5326566148057672E-01   -6.4949193209722256E-01
C    5.7901131957591332E+00    2.1053413289874920E+00    8.6421871479320303E-03
C    6.1138061269037172E+00    3.3595783197481799E+00   -7.8756296166617690E-01
C    6.2874330188436502E+00    3.1985070279073708E+00   -2.2737644624811884E+00
O    5.0615626623655672E+00   -3.3621897554761895E+00   -9.6226154734455367E+00
C    5.9479402216002022E+00   -4.5308035351489231E+00   -8.9657106064353638E+00
C    5.1604863688190177E+00   -5.8548717813686952E+00   -8.4627471913089032E+00
C    4.9716086443027443E+00   -6.0906075277361840E+00   -6.8603142294630404E+00
C    6.8520043906515564E+00   -5.0207262611316548E+00   -1.0174520851572364E+01
C    7.8002859126088504E+00   -3.9151185028020303E+00   -1.0822345529380637E+01
C    1.8556108440876580E+00   -2.4071433496833259E+00   -1.4762494086830866E+00
C    2.1000743790145893E+00   -2.8804762670727029E+00   -2.9791161611592938E+00
H    2.5951277678155718E+00    6.2103242902434663E-01    2.0769441333978542E+00
H    3.8375998512349310E+00    5.1417324353222882E-01    4.9705502383044203E-01
H    2.3583743999278002E+00    1.8298456029407599E+00    4.3874965089562046E-01
H    1.7488289831491854E+00   -1.4986466744140325E+00    8.6077975403637119E-01
H    5.1612936974533763E-01   -9.1758689471049190E-02    2.3900122118272907E-01
H    3.1962028403772735E+00   -4.4142427996974337E-01   -1.6818339438203327E+00
H   -3.6871835127096753E-01    1.8553580068429154E+00   -6.0281382750123080E-01
H    3.0172905997726868E-01    4.5761657140225251E+00   -6.8476741395847218E-01
H    2.4287625383453633E+00    5.3953307101243642E+00   -2.5255258300720391E+00
H    9.9819433834933002E-01   -1.9143945654166807E+00   -5.7361141968081402E+00
H    3.5414982587822880E-01   -3.7960707763978028E+00   -7.9233119924971236E+00
H    2.3984180855446242E+00   -4.4529043560398218E+00   -9.6760856344344877E+00
H    1.1377094691173522E+01    1.7708601666287305E+00   -1.1462827922918773E+01
H    1.0127117572295976E+01   -6.6450735499354519E-01   -1.2074116170371889E+01
H    8.0125189335890319E+00   -1.5757807738771616E+00   -1.0271350283418275E+01
H    1.2487297529089590E+01    4.5768424659801994E+00   -8.6571830426424228E+00
H    1.1037385556814570E+01    2.2340516822517693E+00   -6.6941323834255622E+00
H    1.2968527839391417E+01    2.7843721528358705E+00   -6.5204433733777352E+00
H    1.1470129637277136E+01    4.3960957958355893E+00   -4.9277543066411020E+00
H    1.2215296308126636E+01    5.4134184118732298E+00   -6.5151874958459901E+00
H    1.0260631527558187E+01    4.8053937865298604E+00   -6.4940857030554993E+00
H    1.3857973091343293E+01    2.1874641508871120E+00   -8.3189935148068930E+00
H    1.2377136468928844E+01    1.2035274857891147E+00   -9.1739195799480520E+00
H    1.3792119122239869E+01    1.8743518518117448E+00   -1.1288956613293099E+01
H    1.2606857032895121E+01    3.5340340911332979E+00   -1.1116328579120811E+01
H    1.4453752693598462E+01    3.5470923506237493E+00   -1.0377381263500318E+01
H    5.6876579337846200E+00    9.8549915074718033E+00   -6.7894617867400955E+00
H    8.3809894956213160E+00    8.8545070421307503E+00   -7.7536105818490526E+00
H    9.1749031989326948E+00    6.1231709530018641E+00   -7.6933307212070323E+00
H    3.2774913786200779E+00    5.8649065579047281E+00   -6.8618378814085395E+00
H    1.7360198246803327E+00    8.6052147203622020E+00   -5.7085696930954839E+00
H    7.8484427163739034E-01    7.2478649022315116E+00   -6.8205836580288519E+00
H    1.5613295355927161E+00    5.2984557555452625E+00   -4.8563122077753746E+00
H    2.2874614827071857E+00    6.8252583791676367E+00   -3.8200909158311420E+00
H    2.9642423523450023E-01    6.7795007361200126E+00   -4.1954789053456585E+00
H    2.2030999031199450E+00    8.2569339601620442E+00   -8.2620101850444829E+00
H    3.8859846763743642E+00    9.2225111333290730E+00   -7.4901031178402402E+00
H    4.0656480522707295E+00    6.0750771163790800E+00   -9.0041743298987136E+00
H    3.7035874826077140E+00    7.6575373953675117E+00   -1.0154200050573648E+01
H    5.4057740121156170E+00    7.5715484044607377E+00   -9.0372155321982071E+00
H    1.0073522420819160E+01    7.8800384788925826E-01   -5.7422385947826680E+00
H    9.3365882930753870E+00    1.2761109697895465E-01   -1.5134868963131816E+00
H    1.0400028873916279E+01    1.9123940197779277E+00   -1.3994865758431583E+00
H    8.5092349830788496E+00    1.8617352448421720E+00   -2.2928678106284766E+00
H    1.2174424904687093E+01    4.0396855333729526E-01   -2.4417418268453295E+00
H    1.1784843348704992E+01   -5.6171065433389045E-01   -4.2298647638741773E+00
H    1.2327666312935301E+01    1.4551025567744480E+00   -4.2312405295657385E+00
H    2.8209925111882068E+00    1.7168618957924660E+00   -7.1773504191931883E+00
H    6.0267698316457761E+00    3.1033617991732378E+00   -8.8295339845117944E+00
H    5.6474588621083353E+00    1.9004884694364601E+00   -1.0463497440712143E+01
H    4.9563728441999100E+00    3.8836942268964370E+00   -1.0480763471650970E+01
H    1.6619457901709354E+00    2.0774893708841149E+00   -9.1218328655567493E+00
H    2.4374727110095362E+00    3.2708859875985863E+00   -1.0631322597033579E+01
H    2.7550197667664178E+00    1.2106921884904556E+00   -1.0663337201679537E+01
H    7.9329206206495027E+00   -1.5674825494647651E+00   -5.8716035141047938E+00
H    7.6774251986327435E+00   -4.1294092313234270E+00   -4.6552620516873198E+00
H    6.0555293821477187E+00   -4.3312754281991088E+00   -2.3772113898161398E+00
H    5.0474997548175722E+00   -1.9480482409162518E+00   -1.2455829540815393E+00
H    5.6545158925016921E+00   -3.3017570757016501E-01   -6.6926477036515872E-02
H    5.6532023571164318E+00    2.1867032636595427E+00    1.2341152107043625E+00
H    6.2179763554836285E+00    4.5000335030781100E+00   -3.0520783268237361E-01
H    6.5791260541293948E+00    4.1048115934350200E+00   -3.1071077181605697E+00
H    6.6890072466842270E+00   -3.9688999485720422E+00   -8.0976620206589942E+00
H    4.0974112499041135E+00   -5.9141307102434890E+00   -9.0909017758643316E+00
H    5.8696632619629288E+00   -6.8287876782852353E+00   -8.7233520861138523E+00
H    4.8117202974436379E+00   -7.3656613339533541E+00   -6.5762959950791409E+00
H    5.7827880252468455E+00   -5.2961209729124130E+00   -6.2543816118603415E+00
H    3.9307993627518165E+00   -5.3685206276682678E+00   -6.5673129013341649E+00
H    7.5265437080237136E+00   -5.9763098380050304E+00   -9.7708616865331237E+00
H    6.0755924060870790E+00   -5.4841425792204879E+00   -1.1031467307858419E+01
H    8.4016092611472200E+00   -3.3196364130897535E+00   -9.9135251600230241E+00
H    8.6622602820458745E+00   -4.4457899873586912E+00   -1.1546465824516796E+01
H    7.1588026667621643E+00   -3.0882115104603387E+00   -1.1505122781890805E+01
H    2.5452311708857862E+00   -3.0322118226960502E+00   -6.5443435914644454E-01
H    6.7120579435302341E-01   -2.6134874558545951E+00   -1.1353707295810331E+00
H    2.0606898406137923E+00   -4.1202294072295791E+00   -3.0577461371454238E+00
H    1.2213731618476995E+00   -2.3955360235114291E+00   -3.7167884359005727E+00
H    3.1704949604900210E+00   -2.4231870074717459E+00   -3.4258284075599965E+00
     &END COORD
     &KIND Dy
       BASIS_SET SZV-MOLOPT-SR-GTH
       POTENTIAL GTH-PBE-q20
       &POTENTIAL
 4 6 0 10
  0.5102968700000000E+00 2  0.1767093508000000E+02 -0.8678777000000000E+00
 4
  0.4421234800000000E+00 2 -0.2715733840000000E+01  0.4017884260000000E+01
 -0.5187066270000000E+01
  0.4501723000000000E+00 2 -0.2773475350000000E+01  0.2201152450000000E+01
 -0.2604438700000000E+01
  0.4711651400000000E+00 1 -0.7522756100000000E+00
  0.2618074100000000E+00 1 -0.2424856414000000E+02
         # Potential name:  GTH-PBE-Q20  for symbol:  DY
         # Potential read from the potential filename: ../POTENTIAL
       &END POTENTIAL
     &END KIND
     &KIND Tb
       BASIS_SET SZV-MOLOPT-SR-GTH
       POTENTIAL GTH-PBE-q19
     &END KIND
     &KIND Ho
       BASIS_SET SZV-MOLOPT-SR-GTH
       POTENTIAL GTH-PBE-q21
     &END KIND
     &KIND Gd
       BASIS_SET SZV-MOLOPT-SR-GTH
       POTENTIAL GTH-PBE-q18
     &END KIND
     &KIND Lu
       BASIS_SET SZV-MOLOPT-SR-GTH
       POTENTIAL GTH-PBE-q25
     &END KIND
     &KIND Pm
       BASIS_SET SZV-MOLOPT-SR-GTH
       POTENTIAL GTH-PBE-q15
     &END KIND
     &KIND Tm
       BASIS_SET SZV-MOLOPT-SR-GTH
       POTENTIAL GTH-PBE-q23
     &END KIND
     &KIND F
       BASIS_SET SZV-GTH-PADE
       POTENTIAL GTH-PBE-q7
     &END KIND
     &KIND S
       BASIS_SET SZV-GTH-PADE
       POTENTIAL GTH-PBE-q6
     &END KIND
     &KIND Na
       BASIS_SET SZV-GTH-PADE
       POTENTIAL GTH-PBE-q9
     &END KIND
     &KIND B
       BASIS_SET SZV-GTH-PADE
       POTENTIAL GTH-PBE-q3
     &END KIND
     &KIND Cl
       BASIS_SET SZV-GTH-PADE
       POTENTIAL GTH-PBE-q7
     &END KIND
     &KIND H
       BASIS_SET SZV-GTH-PADE
       POTENTIAL GTH-PBE-q1
       &POTENTIAL
 1
  0.2000000000000000E+00 2 -0.4178900440000000E+01  0.7244633100000000E+00
 0
         # Potential name:  GTH-PBE-Q1  for symbol:  H
         # Potential read from the potential filename: ../POTENTIAL
       &END POTENTIAL
     &END KIND
     &KIND N
       BASIS_SET SZV-GTH-PADE
       POTENTIAL GTH-PBE-q5
       &POTENTIAL
 2 3
  0.2837905100000000E+00 2 -0.1241522559000000E+02  0.1868095920000000E+01
 2
  0.2554050000000000E+00 1  0.1363026257000000E+02
  0.2454945300000000E+00 0
         # Potential name:  GTH-PBE-Q5  for symbol:  N
         # Potential read from the potential filename: ../POTENTIAL
       &END POTENTIAL
     &END KIND
     &KIND O
       BASIS_SET SZV-GTH-PADE
       POTENTIAL GTH-PBE-q6
       &POTENTIAL
 2 4
  0.2445543000000000E+00 2 -0.1666721480000000E+02  0.2487311320000000E+01
 2
  0.2209559200000000E+00 1  0.1833745811000000E+02
  0.2113324700000000E+00 0
         # Potential name:  GTH-PBE-Q6  for symbol:  O
         # Potential read from the potential filename: ../POTENTIAL
       &END POTENTIAL
     &END KIND
     &KIND C
       BASIS_SET SZV-GTH-PADE
       POTENTIAL GTH-PBE-q4
       &POTENTIAL
 2 2
  0.3384712400000000E+00 2 -0.8803673979999999E+01  0.1339210850000000E+01
 2
  0.3025757500000000E+00 1  0.9622486650000001E+01
  0.2915069400000000E+00 0
         # Potential name:  GTH-PBE-Q4  for symbol:  C
         # Potential read from the potential filename: ../POTENTIAL
       &END POTENTIAL
     &END KIND
     &TOPOLOGY
       COORD_FILE_NAME ../../Dy_L9_L25_DMF_DMF.xyz
       COORD_FILE_FORMAT  XYZ
       NUMBER_OF_ATOMS  165
       MULTIPLE_UNIT_CELL  1 1 1
     &END TOPOLOGY
   &END SUBSYS
 &END FORCE_EVAL
