 # Version information for this restart file 
 # current date 2023-03-25 19:03:09.086
 # current working dir /mnt/scratch2/users/40265864/MSc_ML_MM/ln_replacements/xyz/Dy_L9_L25_DMF_DMF/geometry_optimisation/run-6
 # Program compiled at                              Mon 24 Oct 18:14:20 BST 2022
 # Program compiled on                          login1.pri.kelvin2.alces.network
 # Program compiled for                                                    local
 # Source code revision number                                         svn:17462
 &GLOBAL
   PRINT_LEVEL  LOW
   PROJECT_NAME molecule_name
   RUN_TYPE  GEO_OPT
 &END GLOBAL
 &MOTION
   &GEO_OPT
     OPTIMIZER  BFGS
     MAX_DR     5.0000000000000000E-01
     MAX_FORCE     5.0000000000000000E-01
     RMS_DR     5.0000000000000003E-02
     RMS_FORCE     5.0000000000000003E-02
     STEP_START_VAL  5
   &END GEO_OPT
 &END MOTION
 &FORCE_EVAL
   METHOD  QS
   &DFT
     BASIS_SET_FILE_NAME ../BASIS_MOLOPT_UCL
     BASIS_SET_FILE_NAME BASIS_SET
     POTENTIAL_FILE_NAME ../POTENTIAL
     UKS  T
     MULTIPLICITY  6
     CHARGE  3
     &SCF
       MAX_SCF  50
       EPS_SCF     5.0000000000000002E-05
       SCF_GUESS  RESTART
       &OT  T
         MINIMIZER  DIIS
         PRECONDITIONER  FULL_KINETIC
       &END OT
       &OUTER_SCF  T
         EPS_SCF     5.0000000000000002E-05
         MAX_SCF  20
       &END OUTER_SCF
     &END SCF
     &MGRID
       NGRIDS  2
       CUTOFF     4.0000000000000000E+02
       REL_CUTOFF     5.0000000000000000E+01
     &END MGRID
     &XC
       DENSITY_CUTOFF     1.0000000000000000E-10
       GRADIENT_CUTOFF     1.0000000000000000E-10
       TAU_CUTOFF     1.0000000000000000E-10
       &XC_FUNCTIONAL  NO_SHORTCUT
         &PBE  T
         &END PBE
       &END XC_FUNCTIONAL
     &END XC
   &END DFT
   &SUBSYS
     &CELL
       A     1.6000000000000000E+01    0.0000000000000000E+00    0.0000000000000000E+00
       B     0.0000000000000000E+00    1.7000000000000000E+01    0.0000000000000000E+00
       C     0.0000000000000000E+00    0.0000000000000000E+00    1.5000000000000002E+01
       PERIODIC  NONE
       MULTIPLE_UNIT_CELL  1 1 1
     &END CELL
     &COORD
C    2.6606794187497824E+00    6.8713930653903321E-01    8.2832697100384667E-01
C    1.7098618852308165E+00   -4.4048172984649314E-01    2.1074165073429682E-01
C    2.0546226680295252E+00   -8.5222487151705273E-01   -1.3061485113825140E+00
O    9.3089860575374461E-01   -1.9884203676145581E-01   -2.2365987945680579E+00
C    1.2371981992834988E+00    1.2600982768497622E+00   -2.1598429227419675E+00
C    5.2846735849820237E-01    2.2961104525423948E+00   -1.3353342850061918E+00
C    9.1189647408459751E-01    3.7464070949623904E+00   -1.3777357509761234E+00
C    2.0169403116947553E+00    4.2376502785401859E+00   -2.2863437748265660E+00
C    2.7265037872331277E+00    3.1854410169023941E+00   -3.0272105758642369E+00
C    2.3873069770899766E+00    1.7516335536652277E+00   -2.9598532321941131E+00
C    3.1308033808056490E+00    1.0522589291908464E+00   -4.1079400105002071E+00
N    2.8274162652097425E+00   -3.2773591466618718E-01   -4.4841293302262937E+00
C    3.6617801679862905E+00   -7.7325426722828894E-01   -5.6028163488535476E+00
C    3.1373759170243329E+00   -1.8776433317258814E+00   -6.5237892986833783E+00
C    1.7612030954119935E+00   -2.3808270539755645E+00   -6.6185003692087712E+00
C    1.4949761325762632E+00   -3.3343331794237820E+00   -7.7541414562896831E+00
C    2.5972307650909965E+00   -3.6956365754556697E+00   -8.7134858939643465E+00
C    3.9785410810143551E+00   -3.1158364249534793E+00   -8.6305259819557030E+00
C    4.1989805702446041E+00   -2.1756000761307530E+00   -7.5090201724893575E+00
C    5.3590478047394940E+00   -1.2195164443401798E+00   -7.2204424857594312E+00
N    4.9874604451928537E+00   -3.7333859030050986E-01   -6.0713188688072641E+00
Dy    6.1018843925941253E+00    1.2953073583761388E+00   -5.1386332013487985E+00
N    3.9689738048928587E+00    2.0692516254899935E+00   -4.8211858006739190E+00
C    3.7430774392539208E+00    3.3700820517463095E+00   -4.1785158330623355E+00
N    4.2577178042197072E+00    4.7086158982261583E+00   -4.4753237472706440E+00
C    5.4767906400397655E+00    4.7249769553999261E+00   -5.2702559957290811E+00
N    6.5119918330638757E+00    3.6538786097491727E+00   -5.3451108231168627E+00
C    7.6043331634429059E+00    4.1150993110951131E+00   -6.2245343876431392E+00
N    8.6860232753616362E+00    3.4568698636320336E+00   -6.9762176006238557E+00
C    8.4564671658783901E+00    2.0740893766496136E+00   -7.3811082436796838E+00
N    7.4380355783213137E+00    1.1143089576114662E+00   -7.0076874475838515E+00
C    7.3679560523391174E+00   -1.4331126158025740E-02   -7.9272326607741057E+00
N    6.5214033838535839E+00   -1.1984713802358593E+00   -8.1011301820356056E+00
C    8.4954346014083733E+00    1.9521005378052164E-01   -8.9252432623409437E+00
C    9.1917706132784911E+00    1.4546787731430544E+00   -8.5587431062715709E+00
C    1.0148211399288082E+01    2.0891167572253240E+00   -9.5052013201049146E+00
C    1.0522157757718226E+01    1.2693268993708271E+00   -1.0717727583935023E+01
C    9.8438912260748843E+00   -3.7754434266287037E-02   -1.1040499592205638E+01
C    8.7478519579081855E+00   -5.6983247807308179E-01   -1.0150888192732957E+01
O    1.0571427760677551E+01    3.4746935597745883E+00   -9.1543199980992682E+00
C    1.2001014263449067E+01    3.4141482299192054E+00   -8.4675647095044511E+00
C    1.1840132877264116E+01    3.1688444515913909E+00   -6.8932768103732167E+00
C    1.1418762994047952E+01    4.5189489319519263E+00   -6.1630653345750623E+00
C    1.2935599660818685E+01    2.3184693704552584E+00   -9.1380094756193646E+00
C    1.3459395202936868E+01    2.8189361193278062E+00   -1.0557480933463117E+01
C    7.3152897038845284E+00    5.6113759450952037E+00   -6.5547169418409812E+00
C    5.9859846328479600E+00    5.9933792734704863E+00   -6.0137786317125190E+00
C    5.4386562184581910E+00    7.4117661002584230E+00   -6.0600179290010532E+00
C    6.1238190405012887E+00    8.6528685114505777E+00   -6.7368871653661770E+00
C    7.5190799542393680E+00    8.0928465936111422E+00   -7.2913650284763039E+00
C    8.0949626765894660E+00    6.6470395812801195E+00   -7.2386417635039768E+00
O    4.0888937569308412E+00    7.5125362051107807E+00   -5.4172251813380150E+00
C    3.1056361104861216E+00    7.1088236768099762E+00   -6.6003872109872201E+00
C    1.6750677886293539E+00    7.3859907806945220E+00   -5.9783562018755836E+00
C    1.4275789077924403E+00    6.5217933465649978E+00   -4.6573694155279703E+00
C    3.3856035320043438E+00    8.0914048652087285E+00   -7.8665206865244732E+00
C    4.1889359113836324E+00    7.3281604371133753E+00   -9.0461015497957806E+00
O    8.3125093097620315E+00    1.9191267283198550E+00   -4.5562209349475173E+00
C    9.5045702202498212E+00    1.2135662089651060E+00   -4.6735895079167014E+00
N    1.0242156432898554E+01    9.3385916297062865E-01   -3.4554295426862645E+00
C    9.5750558339805956E+00    1.2388953878270579E+00   -2.0786613530785867E+00
C    1.1730386197121179E+01    5.3305959802294844E-01   -3.6079790311403657E+00
O    5.1836999706879423E+00    2.2777392079430956E+00   -7.1073258973333875E+00
C    3.9226047799472665E+00    2.1023571252112982E+00   -7.6867711151004681E+00
N    3.8937657639059799E+00    2.4396813628244423E+00   -9.1056079342676437E+00
C    5.2211144524435493E+00    2.8733158727610171E+00   -9.7728976385897131E+00
C    2.6057521182749346E+00    2.2367396321448481E+00   -9.9291467262662234E+00
N    6.1736655830923732E+00    1.8951380987184334E+00   -2.8607866451444415E+00
C    5.9268002695924613E+00    6.9630344416030809E-01   -2.1112177847185603E+00
C    6.1559060392954139E+00   -6.5979274300793822E-01   -2.8610999421290511E+00
N    6.9145370355370934E+00   -5.4929635199629756E-01   -4.0901607983075765E+00
C    7.3696643068571186E+00   -1.7526567908776600E+00   -4.7504529889504017E+00
C    7.1230051805777972E+00   -3.1186136056481462E+00   -4.1578646148294913E+00
C    6.2790028953957613E+00   -3.2156559837496088E+00   -2.9035111872125783E+00
C    5.7282051297813172E+00   -1.9636881750810626E+00   -2.2754847365196089E+00
C    5.7189437994561185E+00    7.5803665217323779E-01   -6.4896257534651036E-01
C    5.7964335061176833E+00    2.1058078442408625E+00    5.0037090557202143E-03
C    6.1077580449990316E+00    3.3478562040015420E+00   -7.9505661549609630E-01
C    6.2942361304424912E+00    3.2032738830276024E+00   -2.2783355380018859E+00
O    5.0513362980832630E+00   -3.3829664631529570E+00   -9.6150442087705237E+00
C    5.9576357688172328E+00   -4.5332707916615380E+00   -8.9644460598242439E+00
C    5.1696041563602719E+00   -5.8823350750922456E+00   -8.4293944786401376E+00
C    5.0348404616505578E+00   -6.2089407129626002E+00   -6.8661644017043670E+00
C    6.8579726703835755E+00   -5.0258552294462335E+00   -1.0177260210868932E+01
C    7.7976963980210581E+00   -3.9050622641270016E+00   -1.0821815027182545E+01
C    1.8565213707831580E+00   -2.4136105758972817E+00   -1.4814903733668030E+00
C    2.0997529913197068E+00   -2.8755487916478848E+00   -2.9883128882513481E+00
H    2.5929857135596639E+00    6.2075683527679815E-01    2.0715143048560960E+00
H    3.8320875812911215E+00    5.1179692602834659E-01    4.9821687997969760E-01
H    2.3559356886637883E+00    1.8226372962869926E+00    4.4041787240596142E-01
H    1.7497179919369314E+00   -1.4958719591073275E+00    8.5945043562335399E-01
H    5.1927255290457008E-01   -9.2536177725610486E-02    2.3886662868855307E-01
H    3.1865465891106881E+00   -4.4482967635055087E-01   -1.6768302734504485E+00
H   -3.6571149060233477E-01    1.8564393793575917E+00   -6.0700217915786814E-01
H    3.0461269103555799E-01    4.5716124937764846E+00   -6.8956701496318074E-01
H    2.4259387445535774E+00    5.3925630856173736E+00   -2.5197589676988601E+00
H    9.9744178941534600E-01   -1.9196247844033192E+00   -5.7394860933681304E+00
H    3.6098725422441202E-01   -3.7925951484181240E+00   -7.9209988046046629E+00
H    2.3986858722702364E+00   -4.4496490563180426E+00   -9.6726755801072350E+00
H    1.1372977750663711E+01    1.7703829767326480E+00   -1.1458208902708739E+01
H    1.0125308378720538E+01   -6.6094493189822223E-01   -1.2067756786165706E+01
H    8.0171427792422048E+00   -1.5760951662712395E+00   -1.0272505986550909E+01
H    1.2484408363769205E+01    4.5681438517016675E+00   -8.6570360663353885E+00
H    1.1040264894476666E+01    2.2377927199226755E+00   -6.6947236272354775E+00
H    1.2964300104681049E+01    2.7835237730450060E+00   -6.5202665025412800E+00
H    1.1472021888290243E+01    4.3932830805484722E+00   -4.9336492395757050E+00
H    1.2213710520139704E+01    5.4069626814530860E+00   -6.5138020799555632E+00
H    1.0265348213613363E+01    4.8027297122549548E+00   -6.4945334590126835E+00
H    1.3859756082948953E+01    2.1846090215553988E+00   -8.3211521066084124E+00
H    1.2380742513623145E+01    1.2057385166391008E+00   -9.1734661783540723E+00
H    1.3790260362034491E+01    1.8763462141589458E+00   -1.1283393572530734E+01
H    1.2607745143423413E+01    3.5287723259918642E+00   -1.1109342526685719E+01
H    1.4450059768648398E+01    3.5428080355158951E+00   -1.0376193348181712E+01
H    5.4376579337846200E+00    9.9880271090912185E+00   -6.7812239959527458E+00
H    8.3707899642397923E+00    8.8576331524966019E+00   -7.7520225877366231E+00
H    9.1712564162854360E+00    6.1359582514115889E+00   -7.6946408916868707E+00
H    3.2786435855606548E+00    5.8778777365590349E+00   -6.8612052141381801E+00
H    1.7370893463056356E+00    8.6009865427429784E+00   -5.7086002482219262E+00
H    7.8818540366407275E-01    7.2471661695090051E+00   -6.8211908423700907E+00
H    1.5594901523346667E+00    5.3062955011801920E+00   -4.8601593624201467E+00
H    2.2845346911363644E+00    6.8257644837970126E+00   -3.8215863083229733E+00
H    3.0232520835303395E-01    6.7809530074016209E+00   -4.2019271090303016E+00
H    2.2101372119011118E+00    8.2651995178825146E+00   -8.2600595201398956E+00
H    3.8936878353221478E+00    9.2315554688450501E+00   -7.4857809359633842E+00
H    4.0635994044229458E+00    6.0843052185598641E+00   -8.9998845891031269E+00
H    3.7059081438884593E+00    7.6597015007962721E+00   -1.0147425285206793E+01
H    5.3983697847338750E+00    7.5755636090398868E+00   -9.0353826865901006E+00
H    1.0069801121929906E+01    7.9439539816928040E-01   -5.7365607312424753E+00
H    9.3397051694093545E+00    1.3255170453439274E-01   -1.5177645966453039E+00
H    1.0397308932721376E+01    1.9080890397925103E+00   -1.4032705193249697E+00
H    8.5139032197080908E+00    1.8587661585139275E+00   -2.2917733969725282E+00
H    1.2170142454817515E+01    4.0453020000088324E-01   -2.4446932822928651E+00
H    1.1781494863469041E+01   -5.5723580873500589E-01   -4.2263999877078522E+00
H    1.2323479145596279E+01    1.4511478621471792E+00   -4.2280432566862745E+00
H    2.8266695395686279E+00    1.7194801551518142E+00   -7.1789711406665626E+00
H    6.0224800341025446E+00    3.1029955141103933E+00   -8.8356285087854332E+00
H    5.6432162519357814E+00    1.9052210985930462E+00   -1.0461463611790366E+01
H    4.9563552211787698E+00    3.8780979285567421E+00   -1.0478325621632383E+01
H    1.6666560464913385E+00    2.0773817072992218E+00   -9.1241373033183510E+00
H    2.4408107703609585E+00    3.2665651944179275E+00   -1.0627887213125847E+01
H    2.7574315363628448E+00    1.2154061372506624E+00   -1.0659790353182375E+01
H    7.9316394864347117E+00   -1.5696132609586966E+00   -5.8655590702138980E+00
H    7.6731705773859842E+00   -4.1212520148783627E+00   -4.6526364615224827E+00
H    6.0536474709814581E+00   -4.3226675480708581E+00   -2.3805048494855119E+00
H    5.0484252394015821E+00   -1.9478410657513083E+00   -1.2455169184693422E+00
H    5.6539321065164323E+00   -3.3041789509268921E-01   -6.5709650338952361E-02
H    5.6525386859461033E+00    2.1843061003364546E+00    1.2283534358963308E+00
H    6.2167889903075340E+00    4.4903801659934990E+00   -3.1023373209766991E-01
H    6.5757676973332124E+00    4.1040823275829599E+00   -3.1015339482863524E+00
H    6.6815345832491806E+00   -3.9762972195929485E+00   -8.0999916857484262E+00
H    4.1016536755963244E+00   -5.9208088602026088E+00   -9.0851621459066081E+00
H    5.8750395971680689E+00   -6.8367335809344718E+00   -8.7301404408949743E+00
H    5.0052722774276113E+00   -7.4385530930018975E+00   -6.6170076861903127E+00
H    5.7863522725149688E+00   -5.3484673665465117E+00   -6.2621146495767315E+00
H    3.9629942633613897E+00   -5.4061834624513567E+00   -6.5751152174351839E+00
H    7.5241084209963196E+00   -5.9747330009072188E+00   -9.7706712124571045E+00
H    6.0788496849236893E+00   -5.4816551520919630E+00   -1.1028894480525400E+01
H    8.3994207925123341E+00   -3.3231807167532676E+00   -9.9148951468999353E+00
H    8.6564784864803563E+00   -4.4469806862101358E+00   -1.1542176925265126E+01
H    7.1606770784243245E+00   -3.0937170492358192E+00   -1.1502196197041808E+01
H    2.5453440789521826E+00   -3.0272958444383837E+00   -6.5619315383948262E-01
H    6.7478139627131895E-01   -2.6115296937554562E+00   -1.1375190387286302E+00
H    2.0603261931041645E+00   -4.1138962857693722E+00   -3.0529783388181935E+00
H    1.2233683841016734E+00   -2.3988005864309527E+00   -3.7137512873259717E+00
H    3.1674682875262703E+00   -2.4264730878667611E+00   -3.4199262856009147E+00
     &END COORD
     &KIND Dy
       BASIS_SET SZV-MOLOPT-SR-GTH
       POTENTIAL GTH-PBE-q20
       &POTENTIAL
 4 6 0 10
  0.5102968700000000E+00 2  0.1767093508000000E+02 -0.8678777000000000E+00
 4
  0.4421234800000000E+00 2 -0.2715733840000000E+01  0.4017884260000000E+01
 -0.5187066270000000E+01
  0.4501723000000000E+00 2 -0.2773475350000000E+01  0.2201152450000000E+01
 -0.2604438700000000E+01
  0.4711651400000000E+00 1 -0.7522756100000000E+00
  0.2618074100000000E+00 1 -0.2424856414000000E+02
         # Potential name:  GTH-PBE-Q20  for symbol:  DY
         # Potential read from the potential filename: ../POTENTIAL
       &END POTENTIAL
     &END KIND
     &KIND Tb
       BASIS_SET SZV-MOLOPT-SR-GTH
       POTENTIAL GTH-PBE-q19
     &END KIND
     &KIND Ho
       BASIS_SET SZV-MOLOPT-SR-GTH
       POTENTIAL GTH-PBE-q21
     &END KIND
     &KIND Gd
       BASIS_SET SZV-MOLOPT-SR-GTH
       POTENTIAL GTH-PBE-q18
     &END KIND
     &KIND Lu
       BASIS_SET SZV-MOLOPT-SR-GTH
       POTENTIAL GTH-PBE-q25
     &END KIND
     &KIND Pm
       BASIS_SET SZV-MOLOPT-SR-GTH
       POTENTIAL GTH-PBE-q15
     &END KIND
     &KIND Tm
       BASIS_SET SZV-MOLOPT-SR-GTH
       POTENTIAL GTH-PBE-q23
     &END KIND
     &KIND F
       BASIS_SET SZV-GTH-PADE
       POTENTIAL GTH-PBE-q7
     &END KIND
     &KIND S
       BASIS_SET SZV-GTH-PADE
       POTENTIAL GTH-PBE-q6
     &END KIND
     &KIND Na
       BASIS_SET SZV-GTH-PADE
       POTENTIAL GTH-PBE-q9
     &END KIND
     &KIND B
       BASIS_SET SZV-GTH-PADE
       POTENTIAL GTH-PBE-q3
     &END KIND
     &KIND Cl
       BASIS_SET SZV-GTH-PADE
       POTENTIAL GTH-PBE-q7
     &END KIND
     &KIND H
       BASIS_SET SZV-GTH-PADE
       POTENTIAL GTH-PBE-q1
       &POTENTIAL
 1
  0.2000000000000000E+00 2 -0.4178900440000000E+01  0.7244633100000000E+00
 0
         # Potential name:  GTH-PBE-Q1  for symbol:  H
         # Potential read from the potential filename: ../POTENTIAL
       &END POTENTIAL
     &END KIND
     &KIND N
       BASIS_SET SZV-GTH-PADE
       POTENTIAL GTH-PBE-q5
       &POTENTIAL
 2 3
  0.2837905100000000E+00 2 -0.1241522559000000E+02  0.1868095920000000E+01
 2
  0.2554050000000000E+00 1  0.1363026257000000E+02
  0.2454945300000000E+00 0
         # Potential name:  GTH-PBE-Q5  for symbol:  N
         # Potential read from the potential filename: ../POTENTIAL
       &END POTENTIAL
     &END KIND
     &KIND O
       BASIS_SET SZV-GTH-PADE
       POTENTIAL GTH-PBE-q6
       &POTENTIAL
 2 4
  0.2445543000000000E+00 2 -0.1666721480000000E+02  0.2487311320000000E+01
 2
  0.2209559200000000E+00 1  0.1833745811000000E+02
  0.2113324700000000E+00 0
         # Potential name:  GTH-PBE-Q6  for symbol:  O
         # Potential read from the potential filename: ../POTENTIAL
       &END POTENTIAL
     &END KIND
     &KIND C
       BASIS_SET SZV-GTH-PADE
       POTENTIAL GTH-PBE-q4
       &POTENTIAL
 2 2
  0.3384712400000000E+00 2 -0.8803673979999999E+01  0.1339210850000000E+01
 2
  0.3025757500000000E+00 1  0.9622486650000001E+01
  0.2915069400000000E+00 0
         # Potential name:  GTH-PBE-Q4  for symbol:  C
         # Potential read from the potential filename: ../POTENTIAL
       &END POTENTIAL
     &END KIND
     &TOPOLOGY
       COORD_FILE_NAME ../../Dy_L9_L25_DMF_DMF.xyz
       COORD_FILE_FORMAT  XYZ
       NUMBER_OF_ATOMS  165
       MULTIPLE_UNIT_CELL  1 1 1
     &END TOPOLOGY
   &END SUBSYS
 &END FORCE_EVAL
