 # Version information for this restart file 
 # current date 2023-03-25 19:02:07.845
 # current working dir /mnt/scratch2/users/40265864/MSc_ML_MM/ln_replacements/xyz/Dy_L9_L25_DMF_DMF/geometry_optimisation/run-6
 # Program compiled at                              Mon 24 Oct 18:14:20 BST 2022
 # Program compiled on                          login1.pri.kelvin2.alces.network
 # Program compiled for                                                    local
 # Source code revision number                                         svn:17462
 &GLOBAL
   PRINT_LEVEL  LOW
   PROJECT_NAME molecule_name
   RUN_TYPE  GEO_OPT
 &END GLOBAL
 &MOTION
   &GEO_OPT
     OPTIMIZER  BFGS
     MAX_DR     5.0000000000000000E-01
     MAX_FORCE     5.0000000000000000E-01
     RMS_DR     5.0000000000000003E-02
     RMS_FORCE     5.0000000000000003E-02
     STEP_START_VAL  3
   &END GEO_OPT
 &END MOTION
 &FORCE_EVAL
   METHOD  QS
   &DFT
     BASIS_SET_FILE_NAME ../BASIS_MOLOPT_UCL
     BASIS_SET_FILE_NAME BASIS_SET
     POTENTIAL_FILE_NAME ../POTENTIAL
     UKS  T
     MULTIPLICITY  6
     CHARGE  3
     &SCF
       MAX_SCF  50
       EPS_SCF     5.0000000000000002E-05
       SCF_GUESS  RESTART
       &OT  T
         MINIMIZER  DIIS
         PRECONDITIONER  FULL_KINETIC
       &END OT
       &OUTER_SCF  T
         EPS_SCF     5.0000000000000002E-05
         MAX_SCF  20
       &END OUTER_SCF
     &END SCF
     &MGRID
       NGRIDS  2
       CUTOFF     4.0000000000000000E+02
       REL_CUTOFF     5.0000000000000000E+01
     &END MGRID
     &XC
       DENSITY_CUTOFF     1.0000000000000000E-10
       GRADIENT_CUTOFF     1.0000000000000000E-10
       TAU_CUTOFF     1.0000000000000000E-10
       &XC_FUNCTIONAL  NO_SHORTCUT
         &PBE  T
         &END PBE
       &END XC_FUNCTIONAL
     &END XC
   &END DFT
   &SUBSYS
     &CELL
       A     1.6000000000000000E+01    0.0000000000000000E+00    0.0000000000000000E+00
       B     0.0000000000000000E+00    1.7000000000000000E+01    0.0000000000000000E+00
       C     0.0000000000000000E+00    0.0000000000000000E+00    1.5000000000000002E+01
       PERIODIC  NONE
       MULTIPLE_UNIT_CELL  1 1 1
     &END CELL
     &COORD
C    2.6616709205900797E+00    6.7476976463606975E-01    8.3010600957914271E-01
C    1.7092532837190377E+00   -4.3949265445836933E-01    2.0562105917445275E-01
C    2.0566814611549411E+00   -8.4878327958634303E-01   -1.3002508623322766E+00
O    9.6753683008627100E-01   -2.1805870489719811E-01   -2.2637360874303343E+00
C    1.2664868573096466E+00    1.2441154851427574E+00   -2.2158129241965860E+00
C    5.7521735714996691E-01    2.2707069862001426E+00   -1.3851542794015115E+00
C    9.6061715089803912E-01    3.7235257333887857E+00   -1.4316365420399064E+00
C    2.0513120946082148E+00    4.2215112828358672E+00   -2.3360677939156598E+00
C    2.7375403475817146E+00    3.1666911346431692E+00   -3.0722391707444237E+00
C    2.3960899754497107E+00    1.7367145415483725E+00   -3.0012222721167330E+00
C    3.1578410496044707E+00    1.0419277725373783E+00   -4.1084933430305082E+00
N    2.8330873615320709E+00   -3.2246574938699735E-01   -4.5058870919465832E+00
C    3.6733695318383668E+00   -7.4267528066235067E-01   -5.6211570312593331E+00
C    3.1507882309039701E+00   -1.8174479876296143E+00   -6.5449588128549703E+00
C    1.7858410710374799E+00   -2.3219225774211667E+00   -6.6083380003549257E+00
C    1.5400808480770671E+00   -3.2794428132608693E+00   -7.7376217276004482E+00
C    2.6422579462810427E+00   -3.6464483862484163E+00   -8.6911715180396296E+00
C    4.0138463230292754E+00   -3.0542556412601809E+00   -8.6314859980488023E+00
C    4.2125889604771896E+00   -2.1204507080508606E+00   -7.5206726507605728E+00
C    5.3577389910449735E+00   -1.1784183367601855E+00   -7.2177984763634218E+00
N    5.0002176283481328E+00   -3.3643940862457761E-01   -6.0697464757674480E+00
Dy    6.1356094909546570E+00    1.3260680580942481E+00   -5.1231492476529041E+00
N    4.0073689970532840E+00    2.0430614182717366E+00   -4.8181392019295490E+00
C    3.7596477456636173E+00    3.3427669723009314E+00   -4.1823988089843036E+00
N    4.2689047769414206E+00    4.6708614943415441E+00   -4.4781957672727035E+00
C    5.4794332867883933E+00    4.6487938449971011E+00   -5.2784689814048740E+00
N    6.5034719576955453E+00    3.5790018555424705E+00   -5.3411606078717231E+00
C    7.5890683187020231E+00    4.0581116780304685E+00   -6.2103991023527803E+00
N    8.6713303956098144E+00    3.4371241730631863E+00   -6.9636328798337948E+00
C    8.4176807702097172E+00    2.0662664634895171E+00   -7.3673835255074511E+00
N    7.3612884893193193E+00    1.1481773697156143E+00   -6.9676251633819666E+00
C    7.3211375951378912E+00    3.1512293299365758E-02   -7.9204232463415556E+00
N    6.5095753758990123E+00   -1.1639327444166276E+00   -8.1026905926049491E+00
C    8.4427685964404073E+00    2.2631968062966415E-01   -8.9161502781149125E+00
C    9.1453907509389953E+00    1.4644740266343230E+00   -8.5491703837958077E+00
C    1.0102530607082544E+01    2.0930921809734020E+00   -9.4603915744651825E+00
C    1.0478096792227815E+01    1.2770757826488619E+00   -1.0665431554550766E+01
C    9.7944392070170139E+00   -2.9870492925673252E-02   -1.0987215050605016E+01
C    8.6972551166150076E+00   -5.7090493683263377E-01   -1.0112704460520501E+01
O    1.0536911985063817E+01    3.4747344532528444E+00   -9.1083342353726113E+00
C    1.1983756227803230E+01    3.4046408424710091E+00   -8.4695734387710857E+00
C    1.1846569408587415E+01    3.1718445856192172E+00   -6.8952694253401123E+00
C    1.1429139334442235E+01    4.5178221871291333E+00   -6.1757772286917199E+00
C    1.2928530406318579E+01    2.3207769532376354E+00   -9.1370733533259063E+00
C    1.3465451738150660E+01    2.8253526991380284E+00   -1.0544300772217177E+01
C    7.3072821279257250E+00    5.5290640878523512E+00   -6.5400312418471858E+00
C    5.9788574243313519E+00    5.8891914558405896E+00   -6.0112390828386824E+00
C    5.4523671751995524E+00    7.2726419002767111E+00   -6.0391711256780125E+00
C    6.2114762766345235E+00    8.4243950104636109E+00   -6.6847961802897515E+00
C    7.5577988265899227E+00    7.9498933920190966E+00   -7.2553137779671015E+00
C    8.1176523895438457E+00    6.5306661931681562E+00   -7.2283970365615309E+00
O    4.0922499865372179E+00    7.4513508642323627E+00   -5.4276196535433305E+00
C    3.1041482798617053E+00    7.0760928831676146E+00   -6.6137511962722932E+00
C    1.6970152221302719E+00    7.3817934478848111E+00   -5.9758217409170262E+00
C    1.4373340520028821E+00    6.5310364657548599E+00   -4.6600814989242894E+00
C    3.3540687536520197E+00    8.0317370702829898E+00   -7.8904234531541944E+00
C    4.1652137505463704E+00    7.2994233954946708E+00   -9.0655499500991716E+00
O    8.2764549016842075E+00    1.8546943604717259E+00   -4.5494329943188356E+00
C    9.4767522500110211E+00    1.1750520914197995E+00   -4.6701242438324657E+00
N    1.0229029091198854E+01    9.4085654630470117E-01   -3.4554645957415375E+00
C    9.5755904613657759E+00    1.2429699398732332E+00   -2.0801452170183077E+00
C    1.1710411676597063E+01    5.4516979449851899E-01   -3.6055425281415041E+00
O    5.1738949089307313E+00    2.2420861060038901E+00   -7.0882823653978404E+00
C    3.9199293746554318E+00    2.0968269601454534E+00   -7.6773892278822373E+00
N    3.8992805564641517E+00    2.4376057728314517E+00   -9.0849536877715575E+00
C    5.2186450895832879E+00    2.8715537586556157E+00   -9.7615172275697457E+00
C    2.6247976388187237E+00    2.2406026318745069E+00   -9.9085624829446424E+00
N    6.1891409309034762E+00    1.8903971878750823E+00   -2.8807991675129498E+00
C    5.9289250509953311E+00    6.9840291982851010E-01   -2.1421506962974219E+00
C    6.1403017891041900E+00   -6.4803795723058488E-01   -2.8863318409891709E+00
N    6.8933544648625915E+00   -5.4218753127986608E-01   -4.1104263575447515E+00
C    7.3751966588320217E+00   -1.7229353146298234E+00   -4.7705268108712726E+00
C    7.1234580200477451E+00   -3.0712089283578257E+00   -4.1624967227452618E+00
C    6.2885028705828061E+00   -3.1653977090085279E+00   -2.9016632692871007E+00
C    5.7260682437507811E+00   -1.9263848682555380E+00   -2.2747430463074814E+00
C    5.7281262462569789E+00    7.3003173400261767E-01   -6.9160792179428177E-01
C    5.8176781476896773E+00    2.0764663979594165E+00   -5.2226594277850882E-02
C    6.1238412857816487E+00    3.3220869477471879E+00   -8.5094826481539154E-01
C    6.3252422644461044E+00    3.1958735560425056E+00   -2.3236994804003066E+00
O    5.0891433621939042E+00   -3.3244348976120839E+00   -9.6189018008404545E+00
C    5.9607174309992379E+00   -4.4968674363104331E+00   -8.9816348373165642E+00
C    5.1545611676776453E+00   -5.7824859278216207E+00   -8.4471583721185102E+00
C    4.9048521682312058E+00   -5.8864917954763962E+00   -6.8652625198540020E+00
C    6.8533735250415084E+00   -5.0133241059731981E+00   -1.0178170731298868E+01
C    7.7928167607721068E+00   -3.9088267492964941E+00   -1.0824223680184854E+01
C    1.8459895107439139E+00   -2.3965676482476992E+00   -1.4836233615454284E+00
C    2.0861339985793226E+00   -2.8611117778240378E+00   -2.9830688146687385E+00
H    2.5822431961896233E+00    5.8809058380322743E-01    2.0688994489318535E+00
H    3.8346665266765041E+00    4.9473640666417734E-01    4.9845511065357162E-01
H    2.3392457350020175E+00    1.8111341626407662E+00    4.5753050085238350E-01
H    1.7573410294693479E+00   -1.4929215424501094E+00    8.5124939975028080E-01
H    5.2614886019757534E-01   -8.2477602290282656E-02    2.4988411970210486E-01
H    3.2012012290508127E+00   -4.5639475136363028E-01   -1.6355360687584304E+00
H   -3.1134365061586661E-01    1.8331408407884060E+00   -6.6492207715899698E-01
H    3.5750201154040268E-01    4.5385523299808277E+00   -7.4619831051165575E-01
H    2.4855289471757409E+00    5.3734799467891534E+00   -2.5356838176463339E+00
H    1.0189816379324186E+00   -1.8783348615981492E+00   -5.7263101611094882E+00
H    4.1662468691641624E-01   -3.7441793935676153E+00   -7.8893741334076459E+00
H    2.4350294878646435E+00   -4.3950607753512401E+00   -9.6376835141737107E+00
H    1.1312273124016496E+01    1.7797284727838978E+00   -1.1403193026376465E+01
H    1.0080394516205970E+01   -6.5321595453676440E-01   -1.2004829095659471E+01
H    7.9902098374787620E+00   -1.5914236717225065E+00   -1.0217524168258457E+01
H    1.2445354985199208E+01    4.5532466764031954E+00   -8.6818529380366307E+00
H    1.1054283594093825E+01    2.2477421305522780E+00   -6.6677158920056021E+00
H    1.2974953080055410E+01    2.8001113002738145E+00   -6.5362380130900171E+00
H    1.1491664197489001E+01    4.3686047989939292E+00   -4.9495808566944008E+00
H    1.2234413248587733E+01    5.3981796675163869E+00   -6.5193766128585029E+00
H    1.0271208691379803E+01    4.7987149027302616E+00   -6.5058056946033416E+00
H    1.3851820132811911E+01    2.2081185922494808E+00   -8.3203014755684848E+00
H    1.2414649217857779E+01    1.1978673058919043E+00   -9.1886881966995393E+00
H    1.3788895435843973E+01    1.8704281395254669E+00   -1.1258149052101491E+01
H    1.2611553269463295E+01    3.5360063060821458E+00   -1.1089031467985535E+01
H    1.4465163876794106E+01    3.5360333546248550E+00   -1.0355902773212192E+01
H    5.6567896030492220E+00    9.6049915074718033E+00   -6.6626857362874601E+00
H    8.3606629738002525E+00    8.7652749232675937E+00   -7.7042837562119688E+00
H    9.1787520779267968E+00    6.0332262321766992E+00   -7.6961330065834099E+00
H    3.2576344375572082E+00    5.8578956376490510E+00   -6.8891529405790868E+00
H    1.7806498438352412E+00    8.5915230100842912E+00   -5.7035007029468101E+00
H    8.0811974776671514E-01    7.2466122769644450E+00   -6.8189380509983613E+00
H    1.5566858439028795E+00    5.3168177616293129E+00   -4.8829774203048313E+00
H    2.2857339756864654E+00    6.8278507745160475E+00   -3.8090488485676235E+00
H    3.1018263469578017E-01    6.8121361850024584E+00   -4.2383179319481696E+00
H    2.1833960726400012E+00    8.2028202986356877E+00   -8.2744011134019022E+00
H    3.8388719444439290E+00    9.1586890902975586E+00   -7.5524347691791753E+00
H    4.0566471981848951E+00    6.0583941541890063E+00   -9.0310445005687185E+00
H    3.6745786721054010E+00    7.6499690940399416E+00   -1.0155918940158305E+01
H    5.3677884730774128E+00    7.5887668519624691E+00   -9.0435985918384514E+00
H    1.0052639934158304E+01    7.7672803805212265E-01   -5.7329958036141777E+00
H    9.3532830824044613E+00    1.3258430191224785E-01   -1.5319540835788341E+00
H    1.0410208071744051E+01    1.8961423412372616E+00   -1.4131801484292157E+00
H    8.5129977732471254E+00    1.8665215560986330E+00   -2.2761770850476890E+00
H    1.2140037591795430E+01    4.1622557068526023E-01   -2.4439663237692861E+00
H    1.1733580428975554E+01   -5.4241764590648955E-01   -4.2256458733677853E+00
H    1.2292591800968911E+01    1.4671885435277063E+00   -4.2309821940500703E+00
H    2.8027726410664124E+00    1.7362511363384217E+00   -7.1832967170843700E+00
H    6.0372914810592873E+00    3.1179200384314143E+00   -8.8427462509687018E+00
H    5.6269218803272620E+00    1.9079617287277768E+00   -1.0457802499561387E+01
H    4.9342577182776886E+00    3.8650960842753550E+00   -1.0468206599018199E+01
H    1.6953265274098417E+00    2.0848498137442251E+00   -9.0905476345051035E+00
H    2.4741206116822791E+00    3.2687549084216863E+00   -1.0604660656691166E+01
H    2.7874361333421693E+00    1.2166469524213965E+00   -1.0622096286341174E+01
H    7.9527820852606119E+00   -1.5270637377378742E+00   -5.8719952864353981E+00
H    7.6805816738709893E+00   -4.0590872001803628E+00   -4.6462082659917598E+00
H    6.0514955929715741E+00   -4.2598189081703124E+00   -2.3819758160504314E+00
H    5.0741317610859262E+00   -1.8993833854914988E+00   -1.2304739023139046E+00
H    5.6636168937178928E+00   -3.5123687682117161E-01   -1.0773859983606664E-01
H    5.6601452000315602E+00    2.1529356169611789E+00    1.1619661990455930E+00
H    6.2123058432548905E+00    4.4513776772674554E+00   -3.7195625888306127E-01
H    6.5999663028863775E+00    4.1044062573753370E+00   -3.1491682560349470E+00
H    6.6903016414157301E+00   -3.9750956317090571E+00   -8.0995862148942290E+00
H    4.1010052995948012E+00   -5.8885088479265733E+00   -9.0767695189180451E+00
H    5.8621116201375658E+00   -6.7605475345925008E+00   -8.6979688211897042E+00
H    4.8933176369587539E+00   -7.1359286179387604E+00   -6.5402036676142394E+00
H    5.7637501053013089E+00   -5.1837175467997731E+00   -6.2722748129785755E+00
H    3.8679736167525589E+00   -5.2022791674105822E+00   -6.6110054724322582E+00
H    7.5144570971108209E+00   -5.9667332512471480E+00   -9.7658812760250893E+00
H    6.0754154099713595E+00   -5.4608219742805124E+00   -1.1033019831172364E+01
H    8.3892559477185280E+00   -3.3225632667990475E+00   -9.9166256972090689E+00
H    8.6411103040112778E+00   -4.4735906959159584E+00   -1.1527249135224336E+01
H    7.1510321801717609E+00   -3.1093527844762252E+00   -1.1519783623944795E+01
H    2.5379707043787922E+00   -3.0075426432755168E+00   -6.6364178593410461E-01
H    6.6190183377887402E-01   -2.5823416695284833E+00   -1.1519163851995866E+00
H    2.0476822173723042E+00   -4.0959118324182233E+00   -3.0100098105116366E+00
H    1.2020584415411968E+00   -2.4024164638094438E+00   -3.7170864720762338E+00
H    3.1610209435845738E+00   -2.4151710566685676E+00   -3.4062593177892033E+00
     &END COORD
     &KIND Dy
       BASIS_SET SZV-MOLOPT-SR-GTH
       POTENTIAL GTH-PBE-q20
       &POTENTIAL
 4 6 0 10
  0.5102968700000000E+00 2  0.1767093508000000E+02 -0.8678777000000000E+00
 4
  0.4421234800000000E+00 2 -0.2715733840000000E+01  0.4017884260000000E+01
 -0.5187066270000000E+01
  0.4501723000000000E+00 2 -0.2773475350000000E+01  0.2201152450000000E+01
 -0.2604438700000000E+01
  0.4711651400000000E+00 1 -0.7522756100000000E+00
  0.2618074100000000E+00 1 -0.2424856414000000E+02
         # Potential name:  GTH-PBE-Q20  for symbol:  DY
         # Potential read from the potential filename: ../POTENTIAL
       &END POTENTIAL
     &END KIND
     &KIND Tb
       BASIS_SET SZV-MOLOPT-SR-GTH
       POTENTIAL GTH-PBE-q19
     &END KIND
     &KIND Ho
       BASIS_SET SZV-MOLOPT-SR-GTH
       POTENTIAL GTH-PBE-q21
     &END KIND
     &KIND Gd
       BASIS_SET SZV-MOLOPT-SR-GTH
       POTENTIAL GTH-PBE-q18
     &END KIND
     &KIND Lu
       BASIS_SET SZV-MOLOPT-SR-GTH
       POTENTIAL GTH-PBE-q25
     &END KIND
     &KIND Pm
       BASIS_SET SZV-MOLOPT-SR-GTH
       POTENTIAL GTH-PBE-q15
     &END KIND
     &KIND Tm
       BASIS_SET SZV-MOLOPT-SR-GTH
       POTENTIAL GTH-PBE-q23
     &END KIND
     &KIND F
       BASIS_SET SZV-GTH-PADE
       POTENTIAL GTH-PBE-q7
     &END KIND
     &KIND S
       BASIS_SET SZV-GTH-PADE
       POTENTIAL GTH-PBE-q6
     &END KIND
     &KIND Na
       BASIS_SET SZV-GTH-PADE
       POTENTIAL GTH-PBE-q9
     &END KIND
     &KIND B
       BASIS_SET SZV-GTH-PADE
       POTENTIAL GTH-PBE-q3
     &END KIND
     &KIND Cl
       BASIS_SET SZV-GTH-PADE
       POTENTIAL GTH-PBE-q7
     &END KIND
     &KIND H
       BASIS_SET SZV-GTH-PADE
       POTENTIAL GTH-PBE-q1
       &POTENTIAL
 1
  0.2000000000000000E+00 2 -0.4178900440000000E+01  0.7244633100000000E+00
 0
         # Potential name:  GTH-PBE-Q1  for symbol:  H
         # Potential read from the potential filename: ../POTENTIAL
       &END POTENTIAL
     &END KIND
     &KIND N
       BASIS_SET SZV-GTH-PADE
       POTENTIAL GTH-PBE-q5
       &POTENTIAL
 2 3
  0.2837905100000000E+00 2 -0.1241522559000000E+02  0.1868095920000000E+01
 2
  0.2554050000000000E+00 1  0.1363026257000000E+02
  0.2454945300000000E+00 0
         # Potential name:  GTH-PBE-Q5  for symbol:  N
         # Potential read from the potential filename: ../POTENTIAL
       &END POTENTIAL
     &END KIND
     &KIND O
       BASIS_SET SZV-GTH-PADE
       POTENTIAL GTH-PBE-q6
       &POTENTIAL
 2 4
  0.2445543000000000E+00 2 -0.1666721480000000E+02  0.2487311320000000E+01
 2
  0.2209559200000000E+00 1  0.1833745811000000E+02
  0.2113324700000000E+00 0
         # Potential name:  GTH-PBE-Q6  for symbol:  O
         # Potential read from the potential filename: ../POTENTIAL
       &END POTENTIAL
     &END KIND
     &KIND C
       BASIS_SET SZV-GTH-PADE
       POTENTIAL GTH-PBE-q4
       &POTENTIAL
 2 2
  0.3384712400000000E+00 2 -0.8803673979999999E+01  0.1339210850000000E+01
 2
  0.3025757500000000E+00 1  0.9622486650000001E+01
  0.2915069400000000E+00 0
         # Potential name:  GTH-PBE-Q4  for symbol:  C
         # Potential read from the potential filename: ../POTENTIAL
       &END POTENTIAL
     &END KIND
     &TOPOLOGY
       COORD_FILE_NAME ../../Dy_L9_L25_DMF_DMF.xyz
       COORD_FILE_FORMAT  XYZ
       NUMBER_OF_ATOMS  165
       MULTIPLE_UNIT_CELL  1 1 1
     &END TOPOLOGY
   &END SUBSYS
 &END FORCE_EVAL
