 # Version information for this restart file 
 # current date 2023-04-10 15:58:07.669
 # current working dir /mnt/scratch2/users/40265864/MSc_ML_MM/ln_replacements/xyz/Dy_L9_L2/geometry_optimisation_2/run-0
 # Program compiled at                              Mon 24 Oct 18:14:20 BST 2022
 # Program compiled on                          login1.pri.kelvin2.alces.network
 # Program compiled for                                                    local
 # Source code revision number                                         svn:17462
 &GLOBAL
   PRINT_LEVEL  LOW
   PROJECT_NAME dy_complex
   RUN_TYPE  GEO_OPT
 &END GLOBAL
 &MOTION
   &GEO_OPT
     TYPE  MINIMIZATION
     OPTIMIZER  BFGS
     MAX_ITER  100
     MAX_DR     1.0000000000000001E-01
     MAX_FORCE     1.0000000000000001E-01
     RMS_DR     1.0000000000000000E-02
     RMS_FORCE     1.0000000000000000E-02
     STEP_START_VAL  16
     &BFGS
       TRUST_RADIUS     2.9999999999999999E-01
     &END BFGS
   &END GEO_OPT
 &END MOTION
 &FORCE_EVAL
   METHOD  QS
   &DFT
     BASIS_SET_FILE_NAME ../BASIS_MOLOPT_UCL
     BASIS_SET_FILE_NAME BASIS_SET
     POTENTIAL_FILE_NAME ../POTENTIAL
     UKS  T
     MULTIPLICITY  0
     CHARGE  3
     &SCF
       MAX_SCF  200
       EPS_SCF     5.0000000000000002E-05
       SCF_GUESS  RESTART
       &OT  T
         MINIMIZER  DIIS
         PRECONDITIONER  FULL_SINGLE_INVERSE
       &END OT
     &END SCF
     &MGRID
       NGRIDS  4
       CUTOFF     5.0000000000000000E+02
       REL_CUTOFF     3.0000000000000000E+01
     &END MGRID
     &XC
       DENSITY_CUTOFF     1.0000000000000000E-10
       GRADIENT_CUTOFF     1.0000000000000000E-10
       TAU_CUTOFF     1.0000000000000000E-10
       &XC_FUNCTIONAL  NO_SHORTCUT
         &PBE  T
         &END PBE
       &END XC_FUNCTIONAL
     &END XC
   &END DFT
   &SUBSYS
     &CELL
       A     2.5000000000000004E+01    0.0000000000000000E+00    0.0000000000000000E+00
       B     0.0000000000000000E+00    2.5000000000000004E+01    0.0000000000000000E+00
       C     0.0000000000000000E+00    0.0000000000000000E+00    2.5000000000000004E+01
       PERIODIC  XYZ
       MULTIPLE_UNIT_CELL  1 1 1
     &END CELL
     &COORD
C    8.4202046382928124E+00    1.0804642750680753E+00   -8.7519630596512616E+00
C    6.9653953656470673E+00    6.3729581774634403E-01   -8.6661212532747349E+00
O    6.2847860069895454E+00    1.0033851284545963E+00   -9.9239222344587539E+00
C    4.9541429139788749E+00    6.7486443676595254E-01   -9.9609164273773843E+00
C    3.9950912569920760E+00    1.4609318616659326E+00   -9.2861670170910067E+00
C    2.6507442133241192E+00    1.0698832457749401E+00   -9.3710111490085950E+00
C    2.2371110106627379E+00   -6.1461805944781699E-02   -1.0118615066058874E+01
C    3.1745196850591713E+00   -8.4551916703882435E-01   -1.0810392260531314E+01
C    4.5442542051291044E+00   -4.8198135077246712E-01   -1.0717539559959786E+01
O    5.5095201680709165E+00   -1.2629112995076259E+00   -1.1284564409389439E+01
C    5.7163983623600485E+00   -1.0295327596280079E+00   -1.2727833964379691E+01
C    6.7261424871837239E+00   -2.0440401906464816E+00   -1.3261376036294465E+01
C    7.9511770669548210E-01   -2.3079612661662993E-01   -9.8334170134402452E+00
N    8.1768623122725037E-02   -1.2107044660413881E+00   -1.0402644569748677E+01
C   -1.1662230697725051E+00   -1.5177040438518183E+00   -1.0021426107864473E+01
N   -1.9338345602148517E+00   -9.1666809505112490E-01   -9.0374218350214104E+00
Dy   -1.8298100706222948E+00    1.3704847511957521E+00   -8.0380912248221339E+00
N    3.7534903410007925E-01    6.9857564045894638E-01   -8.8995081373345553E+00
C    1.4864494470227307E+00    1.4589228352859136E+00   -8.5708150078848373E+00
N    1.6944905074247756E+00    2.2072457078558148E+00   -7.4744100763172483E+00
C    1.0416106880155227E+00    1.9220020362758896E+00   -6.3297570804317251E+00
C    1.7957825315748779E+00    1.9307292623053607E+00   -5.0793921956579400E+00
C    3.1284637462284763E+00    2.3019889506557982E+00   -4.8288271354351959E+00
C    3.7436677779014786E+00    1.8368030216139091E+00   -3.6484113461303598E+00
O    5.0402439109470389E+00    2.1632079176973189E+00   -3.3481220631859201E+00
C    6.0618106665316684E+00    1.4357247524158703E+00   -4.1071543572334130E+00
C    7.4331664355215112E+00    1.9854990426467460E+00   -3.7381593431234812E+00
C    2.9947990477497477E+00    1.0344672541361222E+00   -2.7155178511643627E+00
C    1.6341296830732772E+00    6.9439259559355770E-01   -2.9711050392565754E+00
C    1.0518115436103881E+00    1.1357569107709951E+00   -4.1729956302116804E+00
C   -1.9993511173424142E-01    7.7365187392403545E-01   -4.8881083836433170E+00
N   -1.1372507216803953E+00   -9.2906194671424983E-03   -4.3269397167911761E+00
C   -2.1653857991823031E+00   -5.2464052117140292E-01   -5.0151719486266808E+00
N   -2.4666647519481812E+00   -3.6802698884984431E-01   -6.3587171046215358E+00
C   -3.5317534095443017E+00   -1.2168943786069744E+00   -6.6326440879935165E+00
N   -3.9121798922307724E+00   -1.7130602111110009E+00   -7.8229442467673049E+00
C   -3.0655326547684352E+00   -1.7065959620299516E+00   -8.8680714848191542E+00
C   -3.1078200025217351E+00   -2.7794411980159794E+00   -9.8743265737664920E+00
C   -1.8694923382256892E+00   -2.6937081281861128E+00   -1.0562546640494295E+01
C   -1.4417827172237703E+00   -3.7182242510644863E+00   -1.1416104613284041E+01
C   -2.2796169260474968E+00   -4.8493203608444722E+00   -1.1565491672076433E+01
O   -1.8088898893738319E+00   -5.9055670419667505E+00   -1.2292400643549950E+01
C   -1.3676012878609785E+00   -7.0375609202519769E+00   -1.1442058397223869E+01
C   -9.5562066244977539E-01   -8.2023937460814960E+00   -1.2323684905369944E+01
C   -3.5881935106710956E+00   -4.8889850731084197E+00   -1.0952983580061010E+01
C   -3.9984945009776030E+00   -3.8454771601507667E+00   -1.0083611559368347E+01
O   -4.3782160229244091E+00   -5.9863436988967837E+00   -1.1157525979525223E+01
C   -5.4077114384664293E+00   -5.8448954406902383E+00   -1.2213197865151002E+01
C   -6.2650102720389400E+00   -7.1023745770830811E+00   -1.2251040851522488E+01
C   -4.0472796272960387E+00   -1.8287642200257443E+00   -5.4028284379516140E+00
C   -3.1104574126684956E+00   -1.4804784615477793E+00   -4.3924660563340217E+00
C   -3.0903388522145248E+00   -2.1799806308523109E+00   -3.1765713955798516E+00
C   -4.0525298847992124E+00   -3.2035752956690775E+00   -2.9759889043463974E+00
C   -5.1305259984758775E+00   -3.4071183915366525E+00   -3.9281895708731343E+00
C   -5.0830551800280688E+00   -2.7478277946946599E+00   -5.1795191366050348E+00
O   -6.1327065663871707E+00   -4.3060836036407171E+00   -3.7035425163630142E+00
C   -7.1260756139432084E+00   -3.9353886442291519E+00   -2.6588542241097990E+00
C   -8.1911144084894705E+00   -5.0316658938473813E+00   -2.5721223093985732E+00
O   -3.8888471216696843E+00   -4.0385669014246481E+00   -1.9078180654354728E+00
C   -3.4092940986687883E+00   -5.3907311308729104E+00   -2.3155635437258741E+00
C   -3.2060621850985340E+00   -6.2497435458379771E+00   -1.0810074504251883E+00
N   -1.7500414254844598E-01    1.2743679056748143E+00   -6.1777749379244353E+00
O    3.6742550028857659E+00    5.3637423197154777E-01   -1.6420139001413316E+00
C    3.2700404975978925E+00    1.0385652747798424E+00   -3.1759354185172162E-01
C    4.1131169675692254E+00    3.4908285600696443E-01    7.4321460873974921E-01
N   -4.0936687647896388E+00    2.0431821034546775E+00   -7.1902823864052126E+00
C   -5.3308834366726829E+00    1.6225996737063562E+00   -7.6242309555179766E+00
N   -5.7034956164292927E+00    1.2834317110194429E+00   -8.8681798691087668E+00
C   -4.8800656722458760E+00    1.3092008812501121E+00   -9.9277589931935477E+00
N   -3.4939459280966094E+00    1.4167802541744214E+00   -9.9155069684699644E+00
C   -3.0911644387102402E+00    1.4811278797783638E+00   -1.1229882846098759E+01
N   -1.8901777404465845E+00    1.8099685507468797E+00   -1.1730763192828739E+01
C   -1.0645446432147769E+00    2.6267276255229524E+00   -1.1065418392066473E+01
N   -1.2141434425672917E+00    3.0369349637018792E+00   -9.7441725315647840E+00
C   -5.1100352810779337E-01    4.2092539297023484E+00   -9.6116260136051164E+00
N   -3.7585450867958248E-01    4.9713855603305035E+00   -8.5208765638958859E+00
C   -1.0095361125401414E+00    4.7072593908877947E+00   -7.3672695452610837E+00
N   -1.8475827547519741E+00    3.6432285503690465E+00   -7.0696454342954516E+00
C   -2.3536868829413256E+00    3.8614855971008386E+00   -5.8005236621744469E+00
N   -3.3837096395178534E+00    3.2498120864909392E+00   -5.1917998026491912E+00
C   -4.2602349830864643E+00    2.4995084060262180E+00   -5.8841745894628064E+00
C   -5.6185187796104294E+00    2.2212178678157817E+00   -5.3976701821229591E+00
C   -6.3224711906071445E+00    1.7337346718931572E+00   -6.5343228524410222E+00
C   -7.7052426529840243E+00    1.5221296602759187E+00   -6.5411266569798157E+00
C   -8.4054715030631773E+00    1.8011810569354756E+00   -5.3378443970552407E+00
C   -7.7257436266534549E+00    2.2309759054967770E+00   -4.1891248943159516E+00
C   -6.3078923685965043E+00    2.4147972317116344E+00   -4.1663049708830044E+00
O   -5.6941045849669205E+00    2.8353603678592472E+00   -3.0281772986700375E+00
C   -5.4455360082307065E+00    1.8677221295012834E+00   -1.9049522225852844E+00
C   -4.1607444019953794E+00    1.0810485177514111E+00   -2.2240876109268415E+00
C   -2.8685383663005135E+00    1.8545974879844642E+00   -1.9223622502043995E+00
C   -6.6553389317160452E+00    9.8274251491054865E-01   -1.5576104602151986E+00
C   -7.8030180547198009E+00    1.7236970876973507E+00   -8.3828245736795981E-01
C   -1.6706886965310701E+00    5.0139936564645256E+00   -5.1740079605728262E+00
C   -8.8818463235883460E-01    5.5803092115268020E+00   -6.1998823605861988E+00
C   -1.4133460930513514E-01    6.7676541004683264E+00   -5.9894405648341404E+00
C   -1.1456461068383812E-01    7.2951432077356646E+00   -4.6525570072304330E+00
C   -8.6610358109590324E-01    6.6849035394717999E+00   -3.6347726390896726E+00
C   -1.6898792523724635E+00    5.5475283322873477E+00   -3.8762853123348378E+00
O    4.2333766929552946E-01    7.2957247193877288E+00   -7.0790679436185275E+00
C    1.6698922626662154E+00    8.0785761880211915E+00   -7.0885322764325176E+00
C    2.7904997638463187E+00    7.0617444754237448E+00   -7.3741274876789955E+00
C    3.0751189646734192E+00    6.0325150903901390E+00   -6.2536599616183617E+00
C    1.4971285795059730E+00    9.0999158388039536E+00   -8.2190436157526925E+00
C    2.1152788254359589E-01    9.9386129460458523E+00   -8.1198499837617515E+00
C    1.1720080273962070E-01    4.5784417125983534E+00   -1.0902444873023985E+01
C   -1.1963321367920852E-01    3.4855619870538868E+00   -1.1778889584058197E+01
C    3.2370909872445924E-01    3.5269172619790643E+00   -1.3127512870147065E+01
C    8.3256762140209728E-01    4.7722354698686686E+00   -1.3599286455654456E+01
C    1.0068506993890294E+00    5.8659540374782839E+00   -1.2731251690314316E+01
C    6.9282542066881492E-01    5.7767648758207839E+00   -1.1350126954871257E+01
O    2.8845785018663506E-01    2.4546974305994107E+00   -1.3971468915599250E+01
C    1.2878978036951481E+00    1.3700354041487977E+00   -1.3722614241780741E+01
C    8.5934712138326086E-01    1.3852572316604406E-01   -1.4522445361003767E+01
C   -4.4972723945611259E-01   -5.2834558252260200E-01   -1.4084221487092293E+01
C    2.6959218394986242E+00    1.8721001300797995E+00   -1.4123879607565074E+01
C    3.4822219315678948E+00    2.5247738260130710E+00   -1.2974770750650194E+01
C   -4.2342025160899306E+00    1.3264808034745708E+00   -1.2141252950744528E+01
C   -5.3755868667027826E+00    1.2795473430463542E+00   -1.1310918882232070E+01
C   -6.6743598100773172E+00    1.3479634811360286E+00   -1.1882164388099142E+01
C   -6.7609431466274259E+00    1.4033465279341693E+00   -1.3319049395379640E+01
C   -5.6054217227189636E+00    1.4214641475972469E+00   -1.4113388930009487E+01
C   -4.3050513120503320E+00    1.3934057756200418E+00   -1.3540114135276488E+01
O   -7.7061887599613881E+00    1.4477519137891397E+00   -1.1034769506423780E+01
C   -9.0700058452933128E+00    1.0114424329129765E+00   -1.1391825001190563E+01
C   -9.3261294948274625E+00   -2.0242294874793182E-01   -1.0482073726680413E+01
C   -8.3607075824425703E+00   -1.3925794897730199E+00   -1.0682199350241627E+01
C   -9.9919784971834513E+00    2.2013575327725343E+00   -1.1107084171032751E+01
C   -9.5792040335781863E+00    3.5165056232492384E+00   -1.1817776527742756E+01
H    8.9057441324368494E+00    9.2706846020582356E-01   -7.7711187323727611E+00
H    8.9713533308828417E+00    4.9709665768411104E-01   -9.5077618108104911E+00
H    8.4926835283486817E+00    2.1508824563241977E+00   -9.0068931763450433E+00
H    6.8858540930829140E+00   -4.5920667167284851E-01   -8.5519589611252744E+00
H    6.4509809774924838E+00    1.1154370871634884E+00   -7.8117445610361598E+00
H    4.3041156789594108E+00    2.3507137647460081E+00   -8.7333941442688854E+00
H    2.8888703564005755E+00   -1.7575694061084650E+00   -1.1338889400076885E+01
H    4.7411047634653860E+00   -1.1090279239205030E+00   -1.3243175375821275E+01
H    6.0809637173021329E+00    6.5637627186606682E-03   -1.2836339750913933E+01
H    7.4243559029665098E+00   -2.3319277077415457E+00   -1.2457853610781930E+01
H    6.2429247317604553E+00   -2.9549967225354994E+00   -1.3651898708450819E+01
H    7.3196694208252318E+00   -1.5890564279170616E+00   -1.4072731514903138E+01
H    3.6845082108213205E+00    2.9372949203718437E+00   -5.5216705113259970E+00
H    5.9789286274596485E+00    3.6582467191059487E-01   -3.8463591832775261E+00
H    5.8726077088392055E+00    1.5446662881783655E+00   -5.1934276194852886E+00
H    7.6055872080868907E+00    1.9107751991537356E+00   -2.6544041737545530E+00
H    8.2111140187689244E+00    1.3940817148244673E+00   -4.2511365714107558E+00
H    7.5445822857623996E+00    3.0398125996122491E+00   -4.0366314303579660E+00
H    1.1038574514842801E+00    2.2080876524531265E-02   -2.2918657238579101E+00
H   -4.6139349913041589E-01   -3.7057548993391851E+00   -1.1898680378747740E+01
H   -5.1161640353562254E-01   -6.6614783533600788E+00   -1.0852289735911102E+01
H   -2.1886745073734222E+00   -7.3014570557475000E+00   -1.0756228074309860E+01
H   -5.3933361671806068E-01   -8.9966939189375559E+00   -1.1680551865924127E+01
H   -1.8150315337735112E+00   -8.6114114037143334E+00   -1.2872721079015696E+01
H   -1.8052350562803474E-01   -7.9040011253287288E+00   -1.3047203941974486E+01
H   -4.9512877842589811E+00   -3.9237473394877251E+00   -9.5558559326620305E+00
H   -6.0121011898788703E+00   -4.9445381348834774E+00   -1.2001509287192141E+01
H   -4.8696172575656300E+00   -5.6981859096534953E+00   -1.3166263611358263E+01
H   -6.7474615843651309E+00   -7.2983899624066764E+00   -1.1280697242799480E+01
H   -7.0594419220189559E+00   -6.9596569702275772E+00   -1.3003648456172170E+01
H   -5.6716343410576222E+00   -7.9856277562937112E+00   -1.2541874140994906E+01
H   -2.3010827898037927E+00   -2.0365080821698736E+00   -2.4339089606144588E+00
H   -5.8149514784941427E+00   -2.9951164864746334E+00   -5.9515299730103060E+00
H   -6.6038110873632867E+00   -3.7918124849869921E+00   -1.6984318360814601E+00
H   -7.5647334677516538E+00   -2.9706353706404451E+00   -2.9734419944550243E+00
H   -8.5522027055109344E+00   -5.1223087059603420E+00   -1.5340026728618519E+00
H   -9.0584225902301636E+00   -4.8274242468344752E+00   -3.2232331261972744E+00
H   -7.7656256143780187E+00   -6.0066459110321331E+00   -2.8592707636877357E+00
H   -4.1410943882856843E+00   -5.8315688095803493E+00   -3.0125595131924459E+00
H   -2.4515749071576689E+00   -5.2382844016613603E+00   -2.8490186252625000E+00
H   -2.9192162311284178E+00   -7.2646430273321743E+00   -1.4094305873067954E+00
H   -2.4012613665240004E+00   -5.8569518555562778E+00   -4.3687763641865396E-01
H   -4.1306010653182401E+00   -6.3344868395418290E+00   -4.9009374839464687E-01
H    3.4392861167839803E+00    2.1303586766856197E+00   -3.2074256698814962E-01
H    2.1916610855003174E+00    8.4918128720995545E-01   -1.7032815340652896E-01
H    3.9423935758180577E+00   -7.3802240437433031E-01    7.5367203310537423E-01
H    5.1850265623640386E+00    5.3896466721327008E-01    5.7378351768202718E-01
H    3.8414656496907105E+00    7.4839178526390415E-01    1.7332951980831688E+00
H   -8.2208530258234163E+00    1.1839927494873075E+00   -7.4408479097001869E+00
H   -9.4931169447625336E+00    1.7000717033999646E+00   -5.2972839557075764E+00
H   -8.2830855229791069E+00    2.4603764177459424E+00   -3.2772853668827020E+00
H   -5.2619506503890987E+00    2.5601549870803577E+00   -1.0686157945639450E+00
H   -4.1740779658712519E+00    1.4131890062291533E-01   -1.6443469800544035E+00
H   -4.1885899485058697E+00    7.7618996553168174E-01   -3.2863955267098186E+00
H   -2.7820458540615673E+00    2.0802739688578646E+00   -8.4554961128008888E-01
H   -1.9829743197252399E+00    1.2698185858173068E+00   -2.2224651315996011E+00
H   -2.8525194751470906E+00    2.8048746283263131E+00   -2.4801008729070331E+00
H   -7.0117154100566621E+00    4.5350947143347276E-01   -2.4593118207376770E+00
H   -6.2707731967812350E+00    1.9076940611942622E-01   -8.9086549119537028E-01
H   -7.5939175306868218E+00    1.8122005411399860E+00    2.4101480202731851E-01
H   -7.9377644302071069E+00    2.7505071584617671E+00   -1.2195060673105200E+00
H   -8.7628644760839745E+00    1.1929824707147656E+00   -9.4805246070745741E-01
H    4.5362678659314609E-01    8.2025612102021768E+00   -4.4300816431947885E+00
H   -8.2347337754043959E-01    7.1041629067699734E+00   -2.6257888918759194E+00
H   -2.2898702743516139E+00    5.0964534819546525E+00   -3.0834193754299490E+00
H    1.8069486599157087E+00    8.5784667639308498E+00   -6.1137553697284179E+00
H    2.4928943178673673E+00    6.5400336080790202E+00   -8.3000794900927239E+00
H    3.6991478658969013E+00    7.6368281389308814E+00   -7.6203463207511835E+00
H    2.9286475216375947E+00    5.0020640341642899E+00   -6.6184149241603647E+00
H    4.1035360421038769E+00    6.1225017100807362E+00   -5.8739606711555510E+00
H    2.4065496035244749E+00    6.1558441709854321E+00   -5.3851910237795320E+00
H    2.3929433014788906E+00    9.7437980302909377E+00   -8.2181311623372064E+00
H    1.5123386276001718E+00    8.5495284227453592E+00   -9.1786823901671823E+00
H    6.7149522053563490E-02    1.0350681224703594E+01   -7.1050593130172075E+00
H    2.4622477183349564E-01    1.0786004455972595E+01   -8.8224800110877482E+00
H   -6.7308890472243887E-01    9.3272391573973614E+00   -8.3682326208458733E+00
H    1.1129885470510434E+00    4.8434336139107383E+00   -1.4652746975305147E+01
H    1.4002230312087307E+00    6.8007559005900342E+00   -1.3137029786853203E+01
H    8.3963235763225863E-01    6.6218173289077367E+00   -1.0673723266459479E+01
H    1.2603349524683254E+00    1.1357773429963220E+00   -1.2641872875817899E+01
H    8.3942026765307853E-01    3.9929456020820614E-01   -1.5596022410176182E+01
H    1.6870462135223707E+00   -5.8472714608016874E-01   -1.4405063057138735E+01
H   -4.2484555171331850E-01   -7.5485353135579814E-01   -1.3004488286416450E+01
H   -1.3186130762191490E+00    1.2196977061636412E-01   -1.4274275193024081E+01
H   -5.9733579334226539E-01   -1.4761544636051500E+00   -1.4628965260301175E+01
H    3.2628872624568239E+00    1.0024672238985572E+00   -1.4503407276369730E+01
H    2.5815226036079841E+00    2.5530042193786122E+00   -1.4983216942946642E+01
H    3.8006190481407138E+00    1.7551240338287593E+00   -1.2251582294268053E+01
H    4.3835014190948565E+00    3.0400732904843597E+00   -1.3339799290233163E+01
H    2.8801000412438538E+00    3.2623950929596046E+00   -1.2419585125213620E+01
H   -7.7350343807491608E+00    1.5034369544549868E+00   -1.3802890061326680E+01
H   -5.7099028954170139E+00    1.5116000796124067E+00   -1.5199044371508338E+01
H   -3.4007051291870951E+00    1.4439498380309910E+00   -1.4148580882433254E+01
H   -9.0946805086778735E+00    7.1958693046850475E-01   -1.2455935994604504E+01
H   -9.2506213588579378E+00    1.7171357579559116E-01   -9.4465445396058811E+00
H   -1.0375028739235828E+01   -5.2323361131151180E-01   -1.0617032596651477E+01
H   -8.1522006744880713E+00   -1.8900118226614462E+00   -9.7205992020300229E+00
H   -8.7635758370699364E+00   -2.1476953331937181E+00   -1.1376939560503159E+01
H   -7.3854363761419801E+00   -1.0592709859379059E+00   -1.1075901316553640E+01
H   -1.1012494046054030E+01    1.8964343016568852E+00   -1.1391010598810427E+01
H   -1.0002602440522624E+01    2.3491199527796964E+00   -1.0013205569600574E+01
H   -9.2539173515651356E+00    4.2760985236882192E+00   -1.1090384670466003E+01
H   -8.7366701648853002E+00    3.3729997417209279E+00   -1.2514106278299561E+01
H   -1.0410000868585035E+01    3.9433740167957141E+00   -1.2397477208792042E+01
     &END COORD
     &KIND Dy
       BASIS_SET DZVP-MOLOPT-SR-GTH
       POTENTIAL GTH-PBE-q20
       &POTENTIAL
 4 6 0 10
  0.5102968700000000E+00 2  0.1767093508000000E+02 -0.8678777000000000E+00
 4
  0.4421234800000000E+00 2 -0.2715733840000000E+01  0.4017884260000000E+01
 -0.5187066270000000E+01
  0.4501723000000000E+00 2 -0.2773475350000000E+01  0.2201152450000000E+01
 -0.2604438700000000E+01
  0.4711651400000000E+00 1 -0.7522756100000000E+00
  0.2618074100000000E+00 1 -0.2424856414000000E+02
         # Potential name:  GTH-PBE-Q20  for symbol:  DY
         # Potential read from the potential filename: ../POTENTIAL
       &END POTENTIAL
     &END KIND
     &KIND Tb
       BASIS_SET DZVP-MOLOPT-SR-GTH
       POTENTIAL GTH-PBE-q19
     &END KIND
     &KIND Ho
       BASIS_SET DZVP-MOLOPT-SR-GTH
       POTENTIAL GTH-PBE-q21
     &END KIND
     &KIND Gd
       BASIS_SET DZVP-MOLOPT-SR-GTH
       POTENTIAL GTH-PBE-q18
     &END KIND
     &KIND Lu
       BASIS_SET DZVP-MOLOPT-SR-GTH
       POTENTIAL GTH-PBE-q25
     &END KIND
     &KIND Pm
       BASIS_SET DZVP-MOLOPT-SR-GTH
       POTENTIAL GTH-PBE-q15
     &END KIND
     &KIND Tm
       BASIS_SET DZVP-MOLOPT-SR-GTH
       POTENTIAL GTH-PBE-q23
     &END KIND
     &KIND F
       BASIS_SET DZVP-GTH-PADE
       POTENTIAL GTH-PBE-q7
     &END KIND
     &KIND S
       BASIS_SET DZVP-GTH-PADE
       POTENTIAL GTH-PBE-q6
     &END KIND
     &KIND Na
       BASIS_SET DZVP-GTH-PADE
       POTENTIAL GTH-PBE-q9
     &END KIND
     &KIND B
       BASIS_SET DZVP-GTH-PADE
       POTENTIAL GTH-PBE-q3
     &END KIND
     &KIND Cl
       BASIS_SET DZVP-GTH-PADE
       POTENTIAL GTH-PBE-q7
     &END KIND
     &KIND H
       BASIS_SET DZVP-GTH-PADE
       POTENTIAL GTH-PBE-q1
       &POTENTIAL
 1
  0.2000000000000000E+00 2 -0.4178900440000000E+01  0.7244633100000000E+00
 0
         # Potential name:  GTH-PBE-Q1  for symbol:  H
         # Potential read from the potential filename: ../POTENTIAL
       &END POTENTIAL
     &END KIND
     &KIND N
       BASIS_SET DZVP-GTH-PADE
       POTENTIAL GTH-PBE-q5
       &POTENTIAL
 2 3
  0.2837905100000000E+00 2 -0.1241522559000000E+02  0.1868095920000000E+01
 2
  0.2554050000000000E+00 1  0.1363026257000000E+02
  0.2454945300000000E+00 0
         # Potential name:  GTH-PBE-Q5  for symbol:  N
         # Potential read from the potential filename: ../POTENTIAL
       &END POTENTIAL
     &END KIND
     &KIND O
       BASIS_SET DZVP-GTH-PADE
       POTENTIAL GTH-PBE-q6
       &POTENTIAL
 2 4
  0.2445543000000000E+00 2 -0.1666721480000000E+02  0.2487311320000000E+01
 2
  0.2209559200000000E+00 1  0.1833745811000000E+02
  0.2113324700000000E+00 0
         # Potential name:  GTH-PBE-Q6  for symbol:  O
         # Potential read from the potential filename: ../POTENTIAL
       &END POTENTIAL
     &END KIND
     &KIND C
       BASIS_SET DZVP-GTH-PADE
       POTENTIAL GTH-PBE-q4
       &POTENTIAL
 2 2
  0.3384712400000000E+00 2 -0.8803673979999999E+01  0.1339210850000000E+01
 2
  0.3025757500000000E+00 1  0.9622486650000001E+01
  0.2915069400000000E+00 0
         # Potential name:  GTH-PBE-Q4  for symbol:  C
         # Potential read from the potential filename: ../POTENTIAL
       &END POTENTIAL
     &END KIND
     &TOPOLOGY
       COORD_FILE_NAME ../../Dy_L9_L2.xyz
       COORD_FILE_FORMAT  XYZ
       NUMBER_OF_ATOMS  233
       MULTIPLE_UNIT_CELL  1 1 1
     &END TOPOLOGY
   &END SUBSYS
 &END FORCE_EVAL
