 # Version information for this restart file 
 # current date 2023-04-10 15:56:45.196
 # current working dir /mnt/scratch2/users/40265864/MSc_ML_MM/ln_replacements/xyz/Dy_L9_L2/geometry_optimisation_2/run-0
 # Program compiled at                              Mon 24 Oct 18:14:20 BST 2022
 # Program compiled on                          login1.pri.kelvin2.alces.network
 # Program compiled for                                                    local
 # Source code revision number                                         svn:17462
 &GLOBAL
   PRINT_LEVEL  LOW
   PROJECT_NAME dy_complex
   RUN_TYPE  GEO_OPT
 &END GLOBAL
 &MOTION
   &GEO_OPT
     TYPE  MINIMIZATION
     OPTIMIZER  BFGS
     MAX_ITER  100
     MAX_DR     1.0000000000000001E-01
     MAX_FORCE     1.0000000000000001E-01
     RMS_DR     1.0000000000000000E-02
     RMS_FORCE     1.0000000000000000E-02
     STEP_START_VAL  14
     &BFGS
       TRUST_RADIUS     2.9999999999999999E-01
     &END BFGS
   &END GEO_OPT
 &END MOTION
 &FORCE_EVAL
   METHOD  QS
   &DFT
     BASIS_SET_FILE_NAME ../BASIS_MOLOPT_UCL
     BASIS_SET_FILE_NAME BASIS_SET
     POTENTIAL_FILE_NAME ../POTENTIAL
     UKS  T
     MULTIPLICITY  0
     CHARGE  3
     &SCF
       MAX_SCF  200
       EPS_SCF     5.0000000000000002E-05
       SCF_GUESS  RESTART
       &OT  T
         MINIMIZER  DIIS
         PRECONDITIONER  FULL_SINGLE_INVERSE
       &END OT
     &END SCF
     &MGRID
       NGRIDS  4
       CUTOFF     5.0000000000000000E+02
       REL_CUTOFF     3.0000000000000000E+01
     &END MGRID
     &XC
       DENSITY_CUTOFF     1.0000000000000000E-10
       GRADIENT_CUTOFF     1.0000000000000000E-10
       TAU_CUTOFF     1.0000000000000000E-10
       &XC_FUNCTIONAL  NO_SHORTCUT
         &PBE  T
         &END PBE
       &END XC_FUNCTIONAL
     &END XC
   &END DFT
   &SUBSYS
     &CELL
       A     2.5000000000000004E+01    0.0000000000000000E+00    0.0000000000000000E+00
       B     0.0000000000000000E+00    2.5000000000000004E+01    0.0000000000000000E+00
       C     0.0000000000000000E+00    0.0000000000000000E+00    2.5000000000000004E+01
       PERIODIC  XYZ
       MULTIPLE_UNIT_CELL  1 1 1
     &END CELL
     &COORD
C    8.4060564363096528E+00    1.0751715486181463E+00   -8.7516741826299373E+00
C    6.9615184128025573E+00    6.2312064783522336E-01   -8.6593504475309686E+00
O    6.2720909434752743E+00    1.0257202960796277E+00   -9.8975424870425712E+00
C    4.9489375546451297E+00    6.7224237609709514E-01   -9.9411869832283450E+00
C    3.9846239508941044E+00    1.4763051523476580E+00   -9.2987642643636867E+00
C    2.6401755301502794E+00    1.0940669524726900E+00   -9.3956349166729218E+00
C    2.2335068965615954E+00   -5.0917012862168355E-02   -1.0125306640030020E+01
C    3.1761623036123559E+00   -8.5369706038604165E-01   -1.0783654558171262E+01
C    4.5458138606140164E+00   -4.9224533874493287E-01   -1.0692830073452845E+01
O    5.5069006020833635E+00   -1.2661447509802155E+00   -1.1267916702525035E+01
C    5.6890421992672060E+00   -1.0227470110580863E+00   -1.2710732338265027E+01
C    6.7082433442779719E+00   -2.0275010919323564E+00   -1.3248893435885879E+01
C    7.8787490009205996E-01   -2.3438807422517691E-01   -9.8338301763463729E+00
N    6.7388025623766779E-02   -1.2187838451040063E+00   -1.0389405288145547E+01
C   -1.1805215601324588E+00   -1.5196411519347646E+00   -1.0001815577918840E+01
N   -1.9403840809399393E+00   -9.2473874949908719E-01   -9.0092829953188787E+00
Dy   -1.7962659326277819E+00    1.3808938679753413E+00   -8.0628085951741291E+00
N    3.7507774656175558E-01    6.9095506399518192E-01   -8.8942205238378982E+00
C    1.4818116295035055E+00    1.4630038636315952E+00   -8.5621174719014590E+00
N    1.6730992138598970E+00    2.2134441654696273E+00   -7.4698544731461229E+00
C    1.0291488696883611E+00    1.9229562214351865E+00   -6.3248203843785316E+00
C    1.7838332900399871E+00    1.9531767164831602E+00   -5.0671359086388916E+00
C    3.1174390748974283E+00    2.3225753563874529E+00   -4.8274592907239047E+00
C    3.7441341438380542E+00    1.8349591913294909E+00   -3.6602316174158123E+00
O    5.0377467993612148E+00    2.1682693919161249E+00   -3.3777826946066867E+00
C    6.0595150352697349E+00    1.4308484804742265E+00   -4.1243388938375478E+00
C    7.4205843966802725E+00    1.9872068821187887E+00   -3.7389547166318566E+00
C    3.0034707155059026E+00    1.0225817456029163E+00   -2.7309393117700558E+00
C    1.6420139912601577E+00    6.8281292593713949E-01   -2.9841539109124575E+00
C    1.0490187488823599E+00    1.1441109066796218E+00   -4.1707577557373465E+00
C   -2.0625718069006452E-01    7.8099214663920025E-01   -4.8873095466327632E+00
N   -1.1397370342686757E+00   -1.1808924167243728E-02   -4.3297591902961381E+00
C   -2.1734325958310681E+00   -5.1917069187495346E-01   -5.0130083562286920E+00
N   -2.4765488546619570E+00   -3.6077330144501502E-01   -6.3581848034274744E+00
C   -3.5522324282704565E+00   -1.2027567475001957E+00   -6.6284546352074614E+00
N   -3.9275567015667696E+00   -1.6989419576320279E+00   -7.8186759811123760E+00
C   -3.0855017238010403E+00   -1.6990230220709832E+00   -8.8613299145379276E+00
C   -3.1269365439488581E+00   -2.7699615774546817E+00   -9.8703732387883605E+00
C   -1.8865221251510900E+00   -2.6977144499036601E+00   -1.0554541710166552E+01
C   -1.4541831957422098E+00   -3.7214700934675946E+00   -1.1410417303749531E+01
C   -2.2901461479913352E+00   -4.8515168006885387E+00   -1.1561475610698722E+01
O   -1.8303335790063768E+00   -5.9140643864280955E+00   -1.2293018277155825E+01
C   -1.3501588602626517E+00   -7.0150733623855643E+00   -1.1428510743664059E+01
C   -9.5137976656795054E-01   -8.1840831875834752E+00   -1.2308311232579557E+01
C   -3.5971561434689465E+00   -4.8907869773539350E+00   -1.0943694830028015E+01
C   -4.0075665994912990E+00   -3.8427299797029288E+00   -1.0078411088025636E+01
O   -4.3945640880198198E+00   -5.9856317974956523E+00   -1.1135826303873301E+01
C   -5.3931002095749188E+00   -5.8419379925124240E+00   -1.2213252531275206E+01
C   -6.2616067916676714E+00   -7.0927841645577621E+00   -1.2254255004878459E+01
C   -4.0754466590320968E+00   -1.8030048512331571E+00   -5.3940152056308532E+00
C   -3.1305687775168911E+00   -1.4643462262983789E+00   -4.3831774048523062E+00
C   -3.0952528134708110E+00   -2.1726183392973253E+00   -3.1741748760287640E+00
C   -4.0503136874412373E+00   -3.2014220996672056E+00   -2.9817488416764513E+00
C   -5.1354826052125011E+00   -3.4051628895310575E+00   -3.9275155678562159E+00
C   -5.1007337789926286E+00   -2.7385814617415103E+00   -5.1736896107434402E+00
O   -6.1197586167917866E+00   -4.3123983078761832E+00   -3.6872666081051104E+00
C   -7.1356055887540455E+00   -3.9125989891123933E+00   -2.6768574015340958E+00
C   -8.1944361109358059E+00   -5.0210572617435130E+00   -2.5820918827891965E+00
O   -3.8857912982805729E+00   -4.0394512717250910E+00   -1.9231824396855339E+00
C   -3.3772523550388853E+00   -5.3783829559307774E+00   -2.3351521334079655E+00
C   -3.1920121250929663E+00   -6.2416336817624858E+00   -1.0982402012773576E+00
N   -1.8733028326104684E-01    1.2764764325270652E+00   -6.1691325281431881E+00
O    3.6823538044983537E+00    5.1950354602385806E-01   -1.6604194330011315E+00
C    3.2717382617948210E+00    1.0464877968478035E+00   -3.4642700706782414E-01
C    4.1074796582810542E+00    3.5847407296490691E-01    7.1843544104260371E-01
N   -4.0965707953296828E+00    2.0329193074492151E+00   -7.1874769921395316E+00
C   -5.3360671293273061E+00    1.6111286086861134E+00   -7.6231293963867541E+00
N   -5.7113207108859045E+00    1.2561441750613265E+00   -8.8658111956058843E+00
C   -4.8777173820958959E+00    1.2783313528440738E+00   -9.9256060952997114E+00
N   -3.4938867652424057E+00    1.3921840276882760E+00   -9.9086678582757841E+00
C   -3.0826337572530189E+00    1.4488785254638690E+00   -1.1224318194838162E+01
N   -1.8831535254933263E+00    1.7899587013686213E+00   -1.1727917413121121E+01
C   -1.0741148629666326E+00    2.6261489385251111E+00   -1.1069781858373265E+01
N   -1.2126735304343190E+00    3.0301031605334612E+00   -9.7438519843194822E+00
C   -5.0548613191303349E-01    4.2031032010843781E+00   -9.5991999063853317E+00
N   -3.9701091968070185E-01    4.9652133541814161E+00   -8.5095204741615742E+00
C   -1.0216685583504685E+00    4.6961269991150676E+00   -7.3517435811254961E+00
N   -1.8635537360589176E+00    3.6383725156347628E+00   -7.0604234859871466E+00
C   -2.3455475992811321E+00    3.8343413368714545E+00   -5.7795407650216664E+00
N   -3.3868495467258155E+00    3.2359237629076438E+00   -5.1853912249314655E+00
C   -4.2595242619371101E+00    2.4727454964553184E+00   -5.8672496572943320E+00
C   -5.6198455351827308E+00    2.1897932470834003E+00   -5.3839759764679345E+00
C   -6.3263362084409724E+00    1.7030570547162731E+00   -6.5238034817013313E+00
C   -7.7118260552938551E+00    1.5007365791421228E+00   -6.5229485901402731E+00
C   -8.4182125429735333E+00    1.8122817745898097E+00   -5.3306828490850400E+00
C   -7.7325665484182053E+00    2.2378009477735348E+00   -4.1810214127395691E+00
C   -6.3110319374407142E+00    2.4073973390094694E+00   -4.1568370466775244E+00
O   -5.6877952437661206E+00    2.8400262613577909E+00   -3.0224861080886916E+00
C   -5.4408296388476494E+00    1.8587170436047502E+00   -1.9091711416423200E+00
C   -4.1525283178823731E+00    1.0735337105092619E+00   -2.2270390401988474E+00
C   -2.8547792966091627E+00    1.8430099561645483E+00   -1.9253653547998335E+00
C   -6.6467914557243164E+00    9.7278965896094760E-01   -1.5686036819917020E+00
C   -7.7942454465438367E+00    1.7204004337123435E+00   -8.4921265090664744E-01
C   -1.6761917836346627E+00    5.0026024958214599E+00   -5.1614490860776874E+00
C   -9.0079145543584627E-01    5.5782664294879840E+00   -6.1867123913362381E+00
C   -1.3925970568175988E-01    6.7602965002644879E+00   -5.9730421092285226E+00
C   -1.1738465372028806E-01    7.3017552153232792E+00   -4.6384850086508349E+00
C   -8.5330274587069477E-01    6.6812605220579293E+00   -3.6180683715735649E+00
C   -1.6668940290304139E+00    5.5336504719739539E+00   -3.8619202987574091E+00
O    4.1492758085406245E-01    7.2953147275443930E+00   -7.0625841636707340E+00
C    1.6686322633071227E+00    8.0693410647326793E+00   -7.0977809896033177E+00
C    2.7796504685805039E+00    7.0435120904036976E+00   -7.3870065679274424E+00
C    3.0664956257777609E+00    6.0221264067992015E+00   -6.2552705221476508E+00
C    1.4910676209877887E+00    9.0786371326118172E+00   -8.2314180240577013E+00
C    2.0680749511624619E-01    9.9248186809938979E+00   -8.1322185751801861E+00
C    1.2730446482879665E-01    4.5710795143638245E+00   -1.0896613092759980E+01
C   -1.0249404868576735E-01    3.4774453074291545E+00   -1.1773976334832271E+01
C    3.3784174013426621E-01    3.5174556396376597E+00   -1.3118847662270865E+01
C    8.2806891157344698E-01    4.7691662934351768E+00   -1.3595867516050147E+01
C    1.0013532656353366E+00    5.8673051023793539E+00   -1.2732253099601440E+01
C    6.9027615876185466E-01    5.7706039121359067E+00   -1.1347466248274134E+01
O    2.8002746278990831E-01    2.4474402767105294E+00   -1.3964081311726126E+01
C    1.2793689060791196E+00    1.3652979782385233E+00   -1.3718339019647734E+01
C    8.6433993045306845E-01    1.3218600095936359E-01   -1.4521893665220549E+01
C   -4.4549440804378521E-01   -5.4045288022872173E-01   -1.4075011072108900E+01
C    2.6836227741823118E+00    1.8692175743089641E+00   -1.4118194815482354E+01
C    3.4731433373102152E+00    2.5193897892164627E+00   -1.2962681215770369E+01
C   -4.2232425360863459E+00    1.3012513473687983E+00   -1.2140955419221028E+01
C   -5.3641241385455007E+00    1.2492190071304488E+00   -1.1314276350443324E+01
C   -6.6570821868841712E+00    1.3307207551462248E+00   -1.1894287388228985E+01
C   -6.7472070326175153E+00    1.4229296252407322E+00   -1.3326648796630455E+01
C   -5.5911315140932754E+00    1.4481521105736541E+00   -1.4123923547651723E+01
C   -4.2938327453932024E+00    1.3825250412285024E+00   -1.3539140174071555E+01
O   -7.6839199560829288E+00    1.4400812160192855E+00   -1.1048047289788897E+01
C   -9.0574958720744778E+00    1.0031739522582228E+00   -1.1388740495710483E+01
C   -9.3166238857126906E+00   -2.0618479137046433E-01   -1.0477337583888982E+01
C   -8.3350041715656467E+00   -1.3906757945307471E+00   -1.0671727262551428E+01
C   -9.9686328415825454E+00    2.1979732790173450E+00   -1.1100946739201442E+01
C   -9.5583934025341311E+00    3.5195217001654950E+00   -1.1811669679243709E+01
H    8.8928487603307182E+00    9.6053893282352421E-01   -7.7672057083174906E+00
H    8.9680177804899355E+00    4.7493365573789531E-01   -9.4820353622027493E+00
H    8.4615533896246475E+00    2.1383086447512927E+00   -9.0436623125314171E+00
H    6.8763600615021989E+00   -4.7364780097813319E-01   -8.5683790382097555E+00
H    6.4392694428082651E+00    1.0966181876188728E+00   -7.8048453481653342E+00
H    4.2946242933446994E+00    2.3687983135410327E+00   -8.7509101922135279E+00
H    2.8912872275237524E+00   -1.7725817792281464E+00   -1.1312410416848074E+01
H    4.7036549102466934E+00   -1.1181551297686554E+00   -1.3209460481878939E+01
H    6.0470158082189958E+00    1.5325631945277874E-02   -1.2823310924631848E+01
H    7.3811508843782656E+00   -2.3481687399780036E+00   -1.2437088278788524E+01
H    6.2357995918069360E+00   -2.9246729505372340E+00   -1.3680785028295375E+01
H    7.3281722884297169E+00   -1.5640246112461380E+00   -1.4034633257314143E+01
H    3.6753660144203870E+00    2.9554019975326935E+00   -5.5219060462403560E+00
H    5.9704780529293293E+00    3.6334676289054535E-01   -3.8575782734383921E+00
H    5.8662134146589073E+00    1.5436357317720832E+00   -5.2085248687732522E+00
H    7.5818594068139511E+00    1.9183777026108300E+00   -2.6508474209182542E+00
H    8.2063267211948929E+00    1.3911540677349090E+00   -4.2332438669310752E+00
H    7.5339451665275279E+00    3.0369941076153339E+00   -4.0510951874214305E+00
H    1.1160282528265382E+00   -2.4418478942012612E-03   -2.3113441078692305E+00
H   -4.8008510828771234E-01   -3.7067124999058634E+00   -1.1902209029207889E+01
H   -4.8720477900719578E-01   -6.6305988617450229E+00   -1.0850292565633213E+01
H   -2.1646634781353300E+00   -7.2774994560953168E+00   -1.0728208458408115E+01
H   -5.5016370835556305E-01   -8.9894442582537142E+00   -1.1671397699525574E+01
H   -1.8182918749723218E+00   -8.5817089598446987E+00   -1.2857738694908390E+01
H   -1.6427452907680126E-01   -7.8926975992523083E+00   -1.3019256065489001E+01
H   -4.9600067115824613E+00   -3.9161488307476691E+00   -9.5452682427974125E+00
H   -5.9921181107109973E+00   -4.9321886453915882E+00   -1.2011805872789422E+01
H   -4.8409278941202087E+00   -5.7042110130340111E+00   -1.3159996345263462E+01
H   -6.7210838430974702E+00   -7.2988894921263707E+00   -1.1274298206314670E+01
H   -7.0749392958239703E+00   -6.9429616626302577E+00   -1.2986446599972076E+01
H   -5.6887139892933654E+00   -7.9748909161726909E+00   -1.2577672169832155E+01
H   -2.2985474192894411E+00   -2.0480194024112235E+00   -2.4392290395459870E+00
H   -5.8402037227649410E+00   -2.9780560379211565E+00   -5.9457734920139718E+00
H   -6.6270577463461091E+00   -3.7482729341869150E+00   -1.7141701547278292E+00
H   -7.5791912356517486E+00   -2.9596824946768074E+00   -3.0249516746215050E+00
H   -8.5302362412828305E+00   -5.1334343482943217E+00   -1.5373221786226368E+00
H   -9.0870968747524348E+00   -4.8135687985680571E+00   -3.1953017326081476E+00
H   -7.7754853642120141E+00   -5.9876705750614310E+00   -2.9018184388031902E+00
H   -4.0960814406413597E+00   -5.8155721218528997E+00   -3.0460838820387179E+00
H   -2.4159042946045699E+00   -5.2015064730583367E+00   -2.8516601759447386E+00
H   -2.9412695514757172E+00   -7.2663809788998872E+00   -1.4262358773651966E+00
H   -2.3671129537301949E+00   -5.8794246402423136E+00   -4.6467734135543870E-01
H   -4.1152379118355604E+00   -6.2951646969081541E+00   -5.0060846530669800E-01
H    3.4530782410400298E+00    2.1347755758445977E+00   -3.5674016444417089E-01
H    2.1911277743953361E+00    8.6742569382885970E-01   -2.0420991810251191E-01
H    3.9416507409013715E+00   -7.2864852863227580E-01    7.1640117399596204E-01
H    5.1800777957634327E+00    5.5795974133879822E-01    5.6990024912607862E-01
H    3.8295522716623851E+00    7.5516367634474713E-01    1.7094083332508030E+00
H   -8.2162207072207227E+00    1.1727755051880759E+00   -7.4362722854508911E+00
H   -9.5107217336107652E+00    1.7307726968860138E+00   -5.2971770505892337E+00
H   -8.2934193021679210E+00    2.4935612207311126E+00   -3.2794583680863032E+00
H   -5.2495865942591005E+00    2.5410883187181472E+00   -1.0652251766276459E+00
H   -4.1745904660413631E+00    1.2742483471803451E-01   -1.6599556865391891E+00
H   -4.1819845736473500E+00    7.7883892444493918E-01   -3.2904820803167119E+00
H   -2.7585934918545583E+00    2.0459694026343702E+00   -8.4442421889169250E-01
H   -1.9729764094204141E+00    1.2613952033291591E+00   -2.2387576578402393E+00
H   -2.8358030619533663E+00    2.8004873813185260E+00   -2.4710294579840570E+00
H   -6.9977955970670500E+00    4.5806245446082450E-01   -2.4833074135878106E+00
H   -6.2677020032415269E+00    1.6854925466178197E-01   -9.1324315991209104E-01
H   -7.5980962464197273E+00    1.7851238687405002E+00    2.3172193213562828E-01
H   -7.9045178255259767E+00    2.7534716413957199E+00   -1.2181688491292373E+00
H   -8.7647156910737500E+00    1.2092887267860815E+00   -9.7200343284879798E-01
H    4.3810759002741839E-01    8.2158416245069379E+00   -4.4191469607074181E+00
H   -8.1973853812620523E-01    7.1127762538478292E+00   -2.6133378170926052E+00
H   -2.2605664625126876E+00    5.0763465763867250E+00   -3.0668639436899521E+00
H    1.8034974574925433E+00    8.5777253770575008E+00   -6.1261661915363703E+00
H    2.4676590328859698E+00    6.5180479536356488E+00   -8.3041236094765889E+00
H    3.6799034659664422E+00    7.6235169138710486E+00   -7.6393588066601721E+00
H    2.9344006685123274E+00    4.9888532346186318E+00   -6.6122754033011022E+00
H    4.0961392498572273E+00    6.1151392784804655E+00   -5.8768846832013555E+00
H    2.4010345131780482E+00    6.1450559748822151E+00   -5.3835748457237793E+00
H    2.3908625516205175E+00    9.7135493471072447E+00   -8.2389860718776067E+00
H    1.4966361592174389E+00    8.5219214498606117E+00   -9.1850722709683499E+00
H    4.1825827148001767E-02    1.0307783099346544E+01   -7.1098059790323429E+00
H    2.5259271462683863E-01    1.0792049089642813E+01   -8.8105815133924281E+00
H   -6.7889911052816687E-01    9.3311469527978961E+00   -8.4121845621215741E+00
H    1.1138316628751113E+00    4.8525162209218191E+00   -1.4649858015620772E+01
H    1.3959282419313570E+00    6.8062088604053477E+00   -1.3139440492313406E+01
H    8.2672789679577252E-01    6.6158586405353699E+00   -1.0666534462507785E+01
H    1.2461789893032407E+00    1.1269306508123873E+00   -1.2636381470456577E+01
H    8.3732864589935174E-01    3.8076708526309067E-01   -1.5593735998364274E+01
H    1.6957329930405483E+00   -5.8316404685616841E-01   -1.4393382024094295E+01
H   -4.2918335106999606E-01   -7.4977157069321465E-01   -1.2991212486165258E+01
H   -1.3265646511864868E+00    8.4462742918747058E-02   -1.4284313687798718E+01
H   -5.7930771387571334E-01   -1.5030944434156943E+00   -1.4597713276415460E+01
H    3.2727415949965919E+00    1.0204604869783367E+00   -1.4508371135709289E+01
H    2.5691543135910608E+00    2.5558752967298286E+00   -1.4973484740349287E+01
H    3.8151644735541792E+00    1.7506538938414580E+00   -1.2250699917008122E+01
H    4.3704735676742938E+00    3.0532822381224363E+00   -1.3317356244687097E+01
H    2.8595053034466091E+00    3.2377423574733415E+00   -1.2396536926386664E+01
H   -7.7200887028254011E+00    1.5448759963900767E+00   -1.3810409020104894E+01
H   -5.7023675058878354E+00    1.5592935182459047E+00   -1.5208327769441675E+01
H   -3.3835887874555004E+00    1.4380901475109484E+00   -1.4144355760451766E+01
H   -9.0766357305870997E+00    7.2591098584509528E-01   -1.2455368616779957E+01
H   -9.2441360297635757E+00    1.7622446917448117E-01   -9.4462568390863204E+00
H   -1.0359786285388310E+01   -5.2261183611569040E-01   -1.0627669192911622E+01
H   -8.1052811739251194E+00   -1.8689820169103164E+00   -9.7046259982455148E+00
H   -8.7439417574779732E+00   -2.1697553986546261E+00   -1.1334767851815405E+01
H   -7.3680720288328718E+00   -1.0643898181632132E+00   -1.1091193766853545E+01
H   -1.0990243883649853E+01    1.8967168749015686E+00   -1.1381321234307407E+01
H   -9.9841256638911240E+00    2.3437295053289491E+00   -1.0008376592948004E+01
H   -9.2463651731992478E+00    4.2842341405503790E+00   -1.1084506151567398E+01
H   -8.7067310760517920E+00    3.3760932721994110E+00   -1.2497172478335338E+01
H   -1.0379732558757473E+01    3.9495222824193363E+00   -1.2403295752198122E+01
     &END COORD
     &KIND Dy
       BASIS_SET DZVP-MOLOPT-SR-GTH
       POTENTIAL GTH-PBE-q20
       &POTENTIAL
 4 6 0 10
  0.5102968700000000E+00 2  0.1767093508000000E+02 -0.8678777000000000E+00
 4
  0.4421234800000000E+00 2 -0.2715733840000000E+01  0.4017884260000000E+01
 -0.5187066270000000E+01
  0.4501723000000000E+00 2 -0.2773475350000000E+01  0.2201152450000000E+01
 -0.2604438700000000E+01
  0.4711651400000000E+00 1 -0.7522756100000000E+00
  0.2618074100000000E+00 1 -0.2424856414000000E+02
         # Potential name:  GTH-PBE-Q20  for symbol:  DY
         # Potential read from the potential filename: ../POTENTIAL
       &END POTENTIAL
     &END KIND
     &KIND Tb
       BASIS_SET DZVP-MOLOPT-SR-GTH
       POTENTIAL GTH-PBE-q19
     &END KIND
     &KIND Ho
       BASIS_SET DZVP-MOLOPT-SR-GTH
       POTENTIAL GTH-PBE-q21
     &END KIND
     &KIND Gd
       BASIS_SET DZVP-MOLOPT-SR-GTH
       POTENTIAL GTH-PBE-q18
     &END KIND
     &KIND Lu
       BASIS_SET DZVP-MOLOPT-SR-GTH
       POTENTIAL GTH-PBE-q25
     &END KIND
     &KIND Pm
       BASIS_SET DZVP-MOLOPT-SR-GTH
       POTENTIAL GTH-PBE-q15
     &END KIND
     &KIND Tm
       BASIS_SET DZVP-MOLOPT-SR-GTH
       POTENTIAL GTH-PBE-q23
     &END KIND
     &KIND F
       BASIS_SET DZVP-GTH-PADE
       POTENTIAL GTH-PBE-q7
     &END KIND
     &KIND S
       BASIS_SET DZVP-GTH-PADE
       POTENTIAL GTH-PBE-q6
     &END KIND
     &KIND Na
       BASIS_SET DZVP-GTH-PADE
       POTENTIAL GTH-PBE-q9
     &END KIND
     &KIND B
       BASIS_SET DZVP-GTH-PADE
       POTENTIAL GTH-PBE-q3
     &END KIND
     &KIND Cl
       BASIS_SET DZVP-GTH-PADE
       POTENTIAL GTH-PBE-q7
     &END KIND
     &KIND H
       BASIS_SET DZVP-GTH-PADE
       POTENTIAL GTH-PBE-q1
       &POTENTIAL
 1
  0.2000000000000000E+00 2 -0.4178900440000000E+01  0.7244633100000000E+00
 0
         # Potential name:  GTH-PBE-Q1  for symbol:  H
         # Potential read from the potential filename: ../POTENTIAL
       &END POTENTIAL
     &END KIND
     &KIND N
       BASIS_SET DZVP-GTH-PADE
       POTENTIAL GTH-PBE-q5
       &POTENTIAL
 2 3
  0.2837905100000000E+00 2 -0.1241522559000000E+02  0.1868095920000000E+01
 2
  0.2554050000000000E+00 1  0.1363026257000000E+02
  0.2454945300000000E+00 0
         # Potential name:  GTH-PBE-Q5  for symbol:  N
         # Potential read from the potential filename: ../POTENTIAL
       &END POTENTIAL
     &END KIND
     &KIND O
       BASIS_SET DZVP-GTH-PADE
       POTENTIAL GTH-PBE-q6
       &POTENTIAL
 2 4
  0.2445543000000000E+00 2 -0.1666721480000000E+02  0.2487311320000000E+01
 2
  0.2209559200000000E+00 1  0.1833745811000000E+02
  0.2113324700000000E+00 0
         # Potential name:  GTH-PBE-Q6  for symbol:  O
         # Potential read from the potential filename: ../POTENTIAL
       &END POTENTIAL
     &END KIND
     &KIND C
       BASIS_SET DZVP-GTH-PADE
       POTENTIAL GTH-PBE-q4
       &POTENTIAL
 2 2
  0.3384712400000000E+00 2 -0.8803673979999999E+01  0.1339210850000000E+01
 2
  0.3025757500000000E+00 1  0.9622486650000001E+01
  0.2915069400000000E+00 0
         # Potential name:  GTH-PBE-Q4  for symbol:  C
         # Potential read from the potential filename: ../POTENTIAL
       &END POTENTIAL
     &END KIND
     &TOPOLOGY
       COORD_FILE_NAME ../../Dy_L9_L2.xyz
       COORD_FILE_FORMAT  XYZ
       NUMBER_OF_ATOMS  233
       MULTIPLE_UNIT_CELL  1 1 1
     &END TOPOLOGY
   &END SUBSYS
 &END FORCE_EVAL
