 # Version information for this restart file 
 # current date 2023-04-10 15:57:29.732
 # current working dir /mnt/scratch2/users/40265864/MSc_ML_MM/ln_replacements/xyz/Dy_L9_L2/geometry_optimisation_2/run-0
 # Program compiled at                              Mon 24 Oct 18:14:20 BST 2022
 # Program compiled on                          login1.pri.kelvin2.alces.network
 # Program compiled for                                                    local
 # Source code revision number                                         svn:17462
 &GLOBAL
   PRINT_LEVEL  LOW
   PROJECT_NAME dy_complex
   RUN_TYPE  GEO_OPT
 &END GLOBAL
 &MOTION
   &GEO_OPT
     TYPE  MINIMIZATION
     OPTIMIZER  BFGS
     MAX_ITER  100
     MAX_DR     1.0000000000000001E-01
     MAX_FORCE     1.0000000000000001E-01
     RMS_DR     1.0000000000000000E-02
     RMS_FORCE     1.0000000000000000E-02
     STEP_START_VAL  15
     &BFGS
       TRUST_RADIUS     2.9999999999999999E-01
     &END BFGS
   &END GEO_OPT
 &END MOTION
 &FORCE_EVAL
   METHOD  QS
   &DFT
     BASIS_SET_FILE_NAME ../BASIS_MOLOPT_UCL
     BASIS_SET_FILE_NAME BASIS_SET
     POTENTIAL_FILE_NAME ../POTENTIAL
     UKS  T
     MULTIPLICITY  0
     CHARGE  3
     &SCF
       MAX_SCF  200
       EPS_SCF     5.0000000000000002E-05
       SCF_GUESS  RESTART
       &OT  T
         MINIMIZER  DIIS
         PRECONDITIONER  FULL_SINGLE_INVERSE
       &END OT
     &END SCF
     &MGRID
       NGRIDS  4
       CUTOFF     5.0000000000000000E+02
       REL_CUTOFF     3.0000000000000000E+01
     &END MGRID
     &XC
       DENSITY_CUTOFF     1.0000000000000000E-10
       GRADIENT_CUTOFF     1.0000000000000000E-10
       TAU_CUTOFF     1.0000000000000000E-10
       &XC_FUNCTIONAL  NO_SHORTCUT
         &PBE  T
         &END PBE
       &END XC_FUNCTIONAL
     &END XC
   &END DFT
   &SUBSYS
     &CELL
       A     2.5000000000000004E+01    0.0000000000000000E+00    0.0000000000000000E+00
       B     0.0000000000000000E+00    2.5000000000000004E+01    0.0000000000000000E+00
       C     0.0000000000000000E+00    0.0000000000000000E+00    2.5000000000000004E+01
       PERIODIC  XYZ
       MULTIPLE_UNIT_CELL  1 1 1
     &END CELL
     &COORD
C    8.4230351664176659E+00    1.0796257058839553E+00   -8.7465367987256641E+00
C    6.9645766743801554E+00    6.4108847304432537E-01   -8.6676002104570831E+00
O    6.2778511586837809E+00    1.0094617726461601E+00   -9.9198990738742694E+00
C    4.9482559074546595E+00    6.7608262034587818E-01   -9.9612657850548647E+00
C    3.9911683601528711E+00    1.4653104303453484E+00   -9.2881686575705622E+00
C    2.6494819936241583E+00    1.0601904042057444E+00   -9.3589882187884097E+00
C    2.2335353003081031E+00   -6.6132081713294016E-02   -1.0110928000714836E+01
C    3.1734397178609748E+00   -8.4418228263331574E-01   -1.0806445220532058E+01
C    4.5452045649795094E+00   -4.8253540901072106E-01   -1.0716878264719599E+01
O    5.5129555482186117E+00   -1.2680003268137725E+00   -1.1275527829739817E+01
C    5.7092675714212371E+00   -1.0323249671228594E+00   -1.2718756578872309E+01
C    6.7210159694507015E+00   -2.0399901585722215E+00   -1.3261592216801025E+01
C    7.8970222613552499E-01   -2.2625905040550973E-01   -9.8289343128824331E+00
N    8.2165407331649773E-02   -1.2090043135387489E+00   -1.0397769396166156E+01
C   -1.1666799855994407E+00   -1.5155574496447739E+00   -1.0020100011708223E+01
N   -1.9302904292351297E+00   -9.0969655457741549E-01   -9.0383458656426061E+00
Dy   -1.8593051022148186E+00    1.3769872351699759E+00   -8.0369838655781862E+00
N    3.6595212768731444E-01    6.9950098090049717E-01   -8.8950396629174175E+00
C    1.4810804009092933E+00    1.4602376005610316E+00   -8.5790040133743624E+00
N    1.7042146740087192E+00    2.2000419745844702E+00   -7.4753487847326827E+00
C    1.0381763442408982E+00    1.9317586294592068E+00   -6.3295765493443223E+00
C    1.7969131726413479E+00    1.9181261638208946E+00   -5.0880773738182530E+00
C    3.1231709470583278E+00    2.3064644689332385E+00   -4.8274593546740707E+00
C    3.7440204683789537E+00    1.8372679191815091E+00   -3.6517848882719366E+00
O    5.0395719647913202E+00    2.1692289166643097E+00   -3.3558447809538818E+00
C    6.0597921648277628E+00    1.4356947658171366E+00   -4.1100220894918298E+00
C    7.4325050940309989E+00    1.9831597563786481E+00   -3.7409798275401527E+00
C    2.9943244379864735E+00    1.0313028558374806E+00   -2.7231617087807520E+00
C    1.6306422826640214E+00    6.9478139797275695E-01   -2.9719005381695132E+00
C    1.0509177002435299E+00    1.1294155365676048E+00   -4.1777227742645975E+00
C   -2.0507428921709719E-01    7.7757364676268370E-01   -4.8916081075198932E+00
N   -1.1429735719987675E+00   -2.1649289504441973E-03   -4.3257597733877491E+00
C   -2.1699532726597415E+00   -5.1702232310969620E-01   -5.0161923198305747E+00
N   -2.4688668657542934E+00   -3.6179438668206115E-01   -6.3589113824593611E+00
C   -3.5283936739718529E+00   -1.2192186515875658E+00   -6.6312924639920521E+00
N   -3.9118328284447683E+00   -1.7167284463578332E+00   -7.8207415270939560E+00
C   -3.0577355493718188E+00   -1.7083397553012889E+00   -8.8622182006474741E+00
C   -3.1034389210168105E+00   -2.7789437472966734E+00   -9.8697512185802516E+00
C   -1.8658841352735003E+00   -2.6973204520120659E+00   -1.0554264799191349E+01
C   -1.4471609581578391E+00   -3.7206019624393600E+00   -1.1414242159375920E+01
C   -2.2853845983963144E+00   -4.8538793912661280E+00   -1.1558395455944494E+01
O   -1.7966914485917085E+00   -5.9012553500063643E+00   -1.2291712367245843E+01
C   -1.3685523555338639E+00   -7.0373956306906500E+00   -1.1436091853158743E+01
C   -9.5290812765550781E-01   -8.1997096289528528E+00   -1.2321515382281449E+01
C   -3.5948038909740174E+00   -4.8837221696533017E+00   -1.0953714155985422E+01
C   -3.9971951964820533E+00   -3.8436699748417453E+00   -1.0075656982381838E+01
O   -4.3813720107974667E+00   -5.9870459944586694E+00   -1.1157806172516098E+01
C   -5.4110652521118281E+00   -5.8454626386368025E+00   -1.2212944801335439E+01
C   -6.2667339654238639E+00   -7.1057787908453340E+00   -1.2251840019539479E+01
C   -4.0486168104833604E+00   -1.8247519219902602E+00   -5.4027757816771231E+00
C   -3.1056252890300664E+00   -1.4855125651101686E+00   -4.3987074632759704E+00
C   -3.0903547450302162E+00   -2.1774267962364022E+00   -3.1781540532475718E+00
C   -4.0483477654081454E+00   -3.2070935562321314E+00   -2.9798622609640977E+00
C   -5.1311086145045612E+00   -3.4035816449737317E+00   -3.9250274245080612E+00
C   -5.0809579544564905E+00   -2.7477055374846140E+00   -5.1789313489972235E+00
O   -6.1339006695951079E+00   -4.3061914358150783E+00   -3.7110563782836175E+00
C   -7.1274959398734978E+00   -3.9393297226835586E+00   -2.6655566710591949E+00
C   -8.1977088170938153E+00   -5.0308640185146212E+00   -2.5697096942298567E+00
O   -3.8923278469741955E+00   -4.0365766974017045E+00   -1.9066535987894107E+00
C   -3.4068190675443195E+00   -5.3845837726701991E+00   -2.3174672984906883E+00
C   -3.2019912267957431E+00   -6.2510344057298841E+00   -1.0889642879222168E+00
N   -1.7287892214664660E-01    1.2683055496820357E+00   -6.1855188963825256E+00
O    3.6791762851615237E+00    5.3106701305212800E-01   -1.6542601185516344E+00
C    3.2763248725339631E+00    1.0286390343364484E+00   -3.2725911208416492E-01
C    4.1105805692945978E+00    3.5420545594973196E-01    7.4850026239348144E-01
N   -4.0925677518376071E+00    2.0294059215098730E+00   -7.1876631330620313E+00
C   -5.3288291580324572E+00    1.6136793245487169E+00   -7.6229121780342819E+00
N   -5.6999217577365417E+00    1.2758756257412234E+00   -8.8686764443753994E+00
C   -4.8752201661855175E+00    1.3017733874234867E+00   -9.9269182637070763E+00
N   -3.4917210335100286E+00    1.4323222157423960E+00   -9.9167315696983032E+00
C   -3.0906362247808956E+00    1.4721927491404918E+00   -1.1233007876118469E+01
N   -1.8921755916763763E+00    1.8159046996517978E+00   -1.1727663892941855E+01
C   -1.0656251411791928E+00    2.6317144891165087E+00   -1.1060481077994224E+01
N   -1.2073049897894650E+00    3.0311062470240091E+00   -9.7375009951085207E+00
C   -5.1249475464915850E-01    4.2076346079068410E+00   -9.6093515341547313E+00
N   -3.7127769153723283E-01    4.9679374458887384E+00   -8.5187058995069140E+00
C   -1.0203884039417772E+00    4.7133150791976446E+00   -7.3692829872623875E+00
N   -1.8351732244196490E+00    3.6382722076199876E+00   -7.0624374247191870E+00
C   -2.3656012613922859E+00    3.8730494769627879E+00   -5.8041779859047535E+00
N   -3.3879151446145070E+00    3.2509348669945757E+00   -5.1880377386058498E+00
C   -4.2657190921941206E+00    2.5130615941740975E+00   -5.8936784230073291E+00
C   -5.6153567194121958E+00    2.2158094999278282E+00   -5.3994342546613732E+00
C   -6.3226006396776855E+00    1.7421120718195546E+00   -6.5390844050716792E+00
C   -7.7043386770728866E+00    1.5196330668610614E+00   -6.5427256689942794E+00
C   -8.3981974187486319E+00    1.8053715330667670E+00   -5.3382419946959292E+00
C   -7.7232048452534379E+00    2.2369736140084475E+00   -4.1873041194602223E+00
C   -6.3064712909555496E+00    2.4152224860509497E+00   -4.1720763198143205E+00
O   -5.7053858149868519E+00    2.8271069176212080E+00   -3.0243628288499451E+00
C   -5.4498892316592258E+00    1.8594734679434934E+00   -1.9068298856825854E+00
C   -4.1571085806626584E+00    1.0847909790370256E+00   -2.2221608635991510E+00
C   -2.8617708420418460E+00    1.8506841979884527E+00   -1.9213970807494605E+00
C   -6.6623736614413183E+00    9.7664389165331511E-01   -1.5573251545553866E+00
C   -7.8028416636864568E+00    1.7241328449748352E+00   -8.3704994411592193E-01
C   -1.6658827519157144E+00    5.0095537524501506E+00   -5.1700052225264583E+00
C   -8.8945855653001671E-01    5.5796657964382765E+00   -6.1983391345528887E+00
C   -1.4098726860079258E-01    6.7670669114205078E+00   -5.9904595569495438E+00
C   -1.1821904529422078E-01    7.2926940694393840E+00   -4.6542968573144643E+00
C   -8.6956700596841841E-01    6.6841157432316161E+00   -3.6346569734292449E+00
C   -1.6920845618865417E+00    5.5468038330420208E+00   -3.8740282435796209E+00
O    4.2049030391883208E-01    7.3006695566479047E+00   -7.0799903538353384E+00
C    1.6700080989630779E+00    8.0768863890647307E+00   -7.0828853372702554E+00
C    2.7885835846391149E+00    7.0604603126007426E+00   -7.3766199469678284E+00
C    3.0738595505506652E+00    6.0329817917151090E+00   -6.2561144284156889E+00
C    1.4950756244276495E+00    9.0921110968737420E+00   -8.2197171074696449E+00
C    2.1446378157653939E-01    9.9364286872924570E+00   -8.1214858295449641E+00
C    1.0884515186247187E-01    4.5830260860491858E+00   -1.0900257329079805E+01
C   -1.2518083217034789E-01    3.4887123089931769E+00   -1.1776478986533929E+01
C    3.1313911243962123E-01    3.5290885027392371E+00   -1.3128883644684512E+01
C    8.3707286361419020E-01    4.7672925869187166E+00   -1.3597566121299920E+01
C    1.0042301990854765E+00    5.8627971143211166E+00   -1.2729816559121096E+01
C    6.9098106465374032E-01    5.7786120209485237E+00   -1.1349434219890714E+01
O    2.9313989305960908E-01    2.4565871989950834E+00   -1.3976594947288417E+01
C    1.2828973409097897E+00    1.3651681965341276E+00   -1.3722878361484671E+01
C    8.5881460061122850E-01    1.3294535698749954E-01   -1.4525346847015859E+01
C   -4.4827109478779181E-01   -5.3163325416419493E-01   -1.4082229222313391E+01
C    2.6915202119919588E+00    1.8733308882074342E+00   -1.4120074014683677E+01
C    3.4834897159116149E+00    2.5245722768562437E+00   -1.2975561990376804E+01
C   -4.2355577196188783E+00    1.3319174860053833E+00   -1.2138433207758581E+01
C   -5.3768495195385322E+00    1.2764013069928604E+00   -1.1309115453055153E+01
C   -6.6761699115329147E+00    1.3452889448210694E+00   -1.1882729084677711E+01
C   -6.7581549511589083E+00    1.4053150004790564E+00   -1.3319191589862262E+01
C   -5.6037290523182959E+00    1.4232679340204997E+00   -1.4114530404856815E+01
C   -4.3049545045514828E+00    1.3907017940373800E+00   -1.3540991378938294E+01
O   -7.7038270920243157E+00    1.4545228218585460E+00   -1.1028850645818510E+01
C   -9.0610900567253605E+00    1.0058650482210216E+00   -1.1392368107254683E+01
C   -9.3248048241611112E+00   -2.0601530593772735E-01   -1.0484047916860712E+01
C   -8.3569173778153356E+00   -1.3926738373245295E+00   -1.0680577771029540E+01
C   -9.9812353465115837E+00    2.1989134993993753E+00   -1.1112032320113416E+01
C   -9.5773851394098397E+00    3.5190788701371547E+00   -1.1815256814351230E+01
H    8.9081126561830377E+00    9.3157668672254779E-01   -7.7639128027005331E+00
H    8.9711709626108611E+00    4.9420597533285643E-01   -9.5082192270102972E+00
H    8.4911972866299106E+00    2.1474369593686542E+00   -9.0103808787731570E+00
H    6.8856021876056177E+00   -4.5759630044617811E-01   -8.5497663413381364E+00
H    6.4554830237954217E+00    1.1063012986397329E+00   -7.8049020326773419E+00
H    4.2996082618697544E+00    2.3596440656059894E+00   -8.7417834408306394E+00
H    2.8864427992442696E+00   -1.7552485262464648E+00   -1.1334328805940713E+01
H    4.7412024798600987E+00   -1.1111584639357546E+00   -1.3249068071068463E+01
H    6.0752791020679471E+00    3.4333676977830662E-03   -1.2838393420943943E+01
H    7.4210744355747877E+00   -2.3350677605264369E+00   -1.2460029693361113E+01
H    6.2417561104031352E+00   -2.9516826864929233E+00   -1.3658521155419775E+01
H    7.3235622795831921E+00   -1.5856464179219254E+00   -1.4066493777510567E+01
H    3.6766416690076946E+00    2.9470276641326372E+00   -5.5180101425147905E+00
H    5.9792513062463311E+00    3.6631588268550969E-01   -3.8469223936936050E+00
H    5.8789781108149590E+00    1.5435684342533056E+00   -5.1970066378210547E+00
H    7.6054110296610604E+00    1.9142978832544402E+00   -2.6570053922355119E+00
H    8.2138295994729482E+00    1.3929128052158559E+00   -4.2504081166054215E+00
H    7.5471049104192671E+00    3.0386834312270703E+00   -4.0357406133711136E+00
H    1.1059677256968841E+00    1.7855462206464865E-02   -2.2923117742063162E+00
H   -4.6610013145432688E-01   -3.6987320294093169E+00   -1.1898916362532301E+01
H   -5.0988013490529582E-01   -6.6557155735274360E+00   -1.0859297275712025E+01
H   -2.1870165135462307E+00   -7.3010246799419019E+00   -1.0747761127582244E+01
H   -5.3954949556024812E-01   -8.9932369185305294E+00   -1.1674712376250145E+01
H   -1.8124451107244564E+00   -8.6079052341948596E+00   -1.2870983012964361E+01
H   -1.7879497635466057E-01   -7.9050345977456882E+00   -1.3048375084384254E+01
H   -4.9536467713592902E+00   -3.9206980030025829E+00   -9.5553772805581332E+00
H   -6.0134651884527184E+00   -4.9431709959767494E+00   -1.2008397322832289E+01
H   -4.8657962936464472E+00   -5.7018418536424580E+00   -1.3160431467747117E+01
H   -6.7491634401535903E+00   -7.3017125809371342E+00   -1.1280238309591464E+01
H   -7.0613147670642435E+00   -6.9530766229912855E+00   -1.3002926094631100E+01
H   -5.6723533415509504E+00   -7.9884532289941710E+00   -1.2546738175932001E+01
H   -2.2991235029659656E+00   -2.0317938154917830E+00   -2.4353158508372141E+00
H   -5.8140025375632041E+00   -2.9883097143357364E+00   -5.9509323377197640E+00
H   -6.6174817872243628E+00   -3.7817281015380297E+00   -1.7000847369864303E+00
H   -7.5711368232559728E+00   -2.9722572253875446E+00   -2.9756982195334012E+00
H   -8.5477452469650750E+00   -5.1264281252074753E+00   -1.5298022051268190E+00
H   -9.0666067773894987E+00   -4.8230304517225520E+00   -3.2215360925545893E+00
H   -7.7718389395177496E+00   -6.0039517997707028E+00   -2.8637339653320790E+00
H   -4.1315461223173884E+00   -5.8338286362426324E+00   -3.0162946240906905E+00
H   -2.4445114013910092E+00   -5.2397132332426875E+00   -2.8491087407608950E+00
H   -2.9220497907636713E+00   -7.2688376963064627E+00   -1.4135904347423729E+00
H   -2.3983521334466893E+00   -5.8574307664443932E+00   -4.3713537207351827E-01
H   -4.1234261087711008E+00   -6.3314732790239168E+00   -4.9293490783312377E-01
H    3.4355268851156513E+00    2.1283950676650725E+00   -3.1817340648743553E-01
H    2.1981253880748537E+00    8.5863628079595922E-01   -1.6610908553323739E-01
H    3.9442237055474751E+00   -7.3242351916098947E-01    7.5199654479096290E-01
H    5.1849288785255432E+00    5.3861831349193345E-01    5.6984134111142748E-01
H    3.8366236001475698E+00    7.4860955480079738E-01    1.7381416456010153E+00
H   -8.2251803611578200E+00    1.1808452837305696E+00   -7.4387886675425428E+00
H   -9.4858287146306672E+00    1.7040257089535111E+00   -5.2936168423468386E+00
H   -8.2796970374976411E+00    2.4640012349536486E+00   -3.2728225813197156E+00
H   -5.2611619023383991E+00    2.5571540233285770E+00   -1.0733299926471793E+00
H   -4.1713130803101999E+00    1.4029353723120286E-01   -1.6485992416464121E+00
H   -4.1892250377297451E+00    7.8046785653186601E-01   -3.2859155066742649E+00
H   -2.7799035921151813E+00    2.0781328347482551E+00   -8.4353977162412841E-01
H   -1.9796830856090348E+00    1.2655593125519207E+00   -2.2276339801050073E+00
H   -2.8519442774243187E+00    2.8018835304935799E+00   -2.4773540357494519E+00
H   -7.0132742351932107E+00    4.5387858821002397E-01   -2.4637821989989988E+00
H   -6.2662166339814451E+00    1.8912273666784879E-01   -8.9110512340091796E-01
H   -7.5946181316551797E+00    1.8097186992742851E+00    2.4295934635834263E-01
H   -7.9330129532248090E+00    2.7513901847339945E+00   -1.2199618590588539E+00
H   -8.7611470281729744E+00    1.1926462844839052E+00   -9.5530221811372273E-01
H    4.5124510733963019E-01    8.2000009989663702E+00   -4.4314205533478104E+00
H   -8.2076446636116041E-01    7.0984358141061579E+00   -2.6235268386041017E+00
H   -2.2833808065451970E+00    5.0900146727218933E+00   -3.0790748755666661E+00
H    1.8076845037161247E+00    8.5786273328640874E+00   -6.1098410201458542E+00
H    2.4866553294402727E+00    6.5349208728194119E+00   -8.2982383118402883E+00
H    3.6990798687574271E+00    7.6324744075012871E+00   -7.6238043254217613E+00
H    2.9269869124994528E+00    5.0012943027928074E+00   -6.6182611488450362E+00
H    4.1017249136475309E+00    6.1224913941548404E+00   -5.8744986037768170E+00
H    2.4065475021684337E+00    6.1517635238680244E+00   -5.3854985983979988E+00
H    2.3883129918997335E+00    9.7409129467592326E+00   -8.2247663205149717E+00
H    1.5086478889828077E+00    8.5436379557551536E+00   -9.1807409828996569E+00
H    6.1887868715712016E-02    1.0345523767495333E+01   -7.1063199147551677E+00
H    2.4592171217492967E-01    1.0787933546154168E+01   -8.8218699624728565E+00
H   -6.7087681058880355E-01    9.3240409162422662E+00   -8.3732448178562784E+00
H    1.1111794159408694E+00    4.8409080924481387E+00   -1.4652575477363246E+01
H    1.3936391592967750E+00    6.7988802990784052E+00   -1.3135274510829957E+01
H    8.4482096858993561E-01    6.6214752572530093E+00   -1.0671251670366871E+01
H    1.2682302783326442E+00    1.1343435933839061E+00   -1.2642891951320079E+01
H    8.3990459715932575E-01    3.9592273341401540E-01   -1.5597849331621099E+01
H    1.6892897883948668E+00   -5.8558445961562389E-01   -1.4400793275336452E+01
H   -4.2421113752108697E-01   -7.5290830683760146E-01   -1.3001949609032071E+01
H   -1.3191403388461895E+00    1.1721271132701822E-01   -1.4274235729530986E+01
H   -5.9244561617914482E-01   -1.4808508187012093E+00   -1.4627307234836247E+01
H    3.2584976566974508E+00    1.0026168128839241E+00   -1.4501780428204833E+01
H    2.5890923404108888E+00    2.5549650018105132E+00   -1.4983705914072496E+01
H    3.7988395677597082E+00    1.7521738697573686E+00   -1.2251144550118541E+01
H    4.3823634037547192E+00    3.0448393165887113E+00   -1.3337367928336647E+01
H    2.8765724675887614E+00    3.2541719513467608E+00   -1.2416651219647786E+01
H   -7.7321399682802801E+00    1.5100829890027865E+00   -1.3801231752639454E+01
H   -5.7039879541195706E+00    1.5204171923581560E+00   -1.5199564640163729E+01
H   -3.3991480561739404E+00    1.4407421013078006E+00   -1.4146926830924993E+01
H   -9.0994033778673344E+00    7.1968894161290953E-01   -1.2458925429873318E+01
H   -9.2472823925529894E+00    1.7453743538416017E-01   -9.4502870912586765E+00
H   -1.0376163339051578E+01   -5.2661219828349692E-01   -1.0615408889884549E+01
H   -8.1437692662678209E+00   -1.8813762754362811E+00   -9.7163099760578753E+00
H   -8.7610899606909065E+00   -2.1507266119177268E+00   -1.1372159949817496E+01
H   -7.3832415079302969E+00   -1.0590358048972717E+00   -1.1078597301262946E+01
H   -1.1010137238104068E+01    1.9005922245414824E+00   -1.1385527296103112E+01
H   -9.9993018891648191E+00    2.3477141809122832E+00   -1.0017422623910113E+01
H   -9.2511420294487650E+00    4.2772123503557902E+00   -1.1086645657910154E+01
H   -8.7335163991660654E+00    3.3726631728022003E+00   -1.2509166581536659E+01
H   -1.0405701542234477E+01    3.9420361893681668E+00   -1.2399835759453449E+01
     &END COORD
     &KIND Dy
       BASIS_SET DZVP-MOLOPT-SR-GTH
       POTENTIAL GTH-PBE-q20
       &POTENTIAL
 4 6 0 10
  0.5102968700000000E+00 2  0.1767093508000000E+02 -0.8678777000000000E+00
 4
  0.4421234800000000E+00 2 -0.2715733840000000E+01  0.4017884260000000E+01
 -0.5187066270000000E+01
  0.4501723000000000E+00 2 -0.2773475350000000E+01  0.2201152450000000E+01
 -0.2604438700000000E+01
  0.4711651400000000E+00 1 -0.7522756100000000E+00
  0.2618074100000000E+00 1 -0.2424856414000000E+02
         # Potential name:  GTH-PBE-Q20  for symbol:  DY
         # Potential read from the potential filename: ../POTENTIAL
       &END POTENTIAL
     &END KIND
     &KIND Tb
       BASIS_SET DZVP-MOLOPT-SR-GTH
       POTENTIAL GTH-PBE-q19
     &END KIND
     &KIND Ho
       BASIS_SET DZVP-MOLOPT-SR-GTH
       POTENTIAL GTH-PBE-q21
     &END KIND
     &KIND Gd
       BASIS_SET DZVP-MOLOPT-SR-GTH
       POTENTIAL GTH-PBE-q18
     &END KIND
     &KIND Lu
       BASIS_SET DZVP-MOLOPT-SR-GTH
       POTENTIAL GTH-PBE-q25
     &END KIND
     &KIND Pm
       BASIS_SET DZVP-MOLOPT-SR-GTH
       POTENTIAL GTH-PBE-q15
     &END KIND
     &KIND Tm
       BASIS_SET DZVP-MOLOPT-SR-GTH
       POTENTIAL GTH-PBE-q23
     &END KIND
     &KIND F
       BASIS_SET DZVP-GTH-PADE
       POTENTIAL GTH-PBE-q7
     &END KIND
     &KIND S
       BASIS_SET DZVP-GTH-PADE
       POTENTIAL GTH-PBE-q6
     &END KIND
     &KIND Na
       BASIS_SET DZVP-GTH-PADE
       POTENTIAL GTH-PBE-q9
     &END KIND
     &KIND B
       BASIS_SET DZVP-GTH-PADE
       POTENTIAL GTH-PBE-q3
     &END KIND
     &KIND Cl
       BASIS_SET DZVP-GTH-PADE
       POTENTIAL GTH-PBE-q7
     &END KIND
     &KIND H
       BASIS_SET DZVP-GTH-PADE
       POTENTIAL GTH-PBE-q1
       &POTENTIAL
 1
  0.2000000000000000E+00 2 -0.4178900440000000E+01  0.7244633100000000E+00
 0
         # Potential name:  GTH-PBE-Q1  for symbol:  H
         # Potential read from the potential filename: ../POTENTIAL
       &END POTENTIAL
     &END KIND
     &KIND N
       BASIS_SET DZVP-GTH-PADE
       POTENTIAL GTH-PBE-q5
       &POTENTIAL
 2 3
  0.2837905100000000E+00 2 -0.1241522559000000E+02  0.1868095920000000E+01
 2
  0.2554050000000000E+00 1  0.1363026257000000E+02
  0.2454945300000000E+00 0
         # Potential name:  GTH-PBE-Q5  for symbol:  N
         # Potential read from the potential filename: ../POTENTIAL
       &END POTENTIAL
     &END KIND
     &KIND O
       BASIS_SET DZVP-GTH-PADE
       POTENTIAL GTH-PBE-q6
       &POTENTIAL
 2 4
  0.2445543000000000E+00 2 -0.1666721480000000E+02  0.2487311320000000E+01
 2
  0.2209559200000000E+00 1  0.1833745811000000E+02
  0.2113324700000000E+00 0
         # Potential name:  GTH-PBE-Q6  for symbol:  O
         # Potential read from the potential filename: ../POTENTIAL
       &END POTENTIAL
     &END KIND
     &KIND C
       BASIS_SET DZVP-GTH-PADE
       POTENTIAL GTH-PBE-q4
       &POTENTIAL
 2 2
  0.3384712400000000E+00 2 -0.8803673979999999E+01  0.1339210850000000E+01
 2
  0.3025757500000000E+00 1  0.9622486650000001E+01
  0.2915069400000000E+00 0
         # Potential name:  GTH-PBE-Q4  for symbol:  C
         # Potential read from the potential filename: ../POTENTIAL
       &END POTENTIAL
     &END KIND
     &TOPOLOGY
       COORD_FILE_NAME ../../Dy_L9_L2.xyz
       COORD_FILE_FORMAT  XYZ
       NUMBER_OF_ATOMS  233
       MULTIPLE_UNIT_CELL  1 1 1
     &END TOPOLOGY
   &END SUBSYS
 &END FORCE_EVAL
