 # Version information for this restart file 
 # current date 2023-04-10 16:42:57.628
 # current working dir /mnt/scratch2/users/40265864/MSc_ML_MM/ln_replacements/xyz/Dy_L9_L25_DMF_DMF/geometry_optimisation_2/run-0
 # Program compiled at                              Mon 24 Oct 18:14:20 BST 2022
 # Program compiled on                          login1.pri.kelvin2.alces.network
 # Program compiled for                                                    local
 # Source code revision number                                         svn:17462
 &GLOBAL
   PRINT_LEVEL  LOW
   PROJECT_NAME dy_complex
   RUN_TYPE  GEO_OPT
 &END GLOBAL
 &MOTION
   &GEO_OPT
     TYPE  MINIMIZATION
     OPTIMIZER  BFGS
     MAX_ITER  100
     MAX_DR     1.0000000000000001E-01
     MAX_FORCE     1.0000000000000001E-01
     RMS_DR     1.0000000000000000E-02
     RMS_FORCE     1.0000000000000000E-02
     STEP_START_VAL  48
     &BFGS
       TRUST_RADIUS     2.9999999999999999E-01
     &END BFGS
   &END GEO_OPT
 &END MOTION
 &FORCE_EVAL
   METHOD  QS
   &DFT
     BASIS_SET_FILE_NAME ../BASIS_MOLOPT_UCL
     BASIS_SET_FILE_NAME BASIS_SET
     POTENTIAL_FILE_NAME ../POTENTIAL
     UKS  T
     MULTIPLICITY  0
     CHARGE  3
     &SCF
       MAX_SCF  200
       EPS_SCF     5.0000000000000002E-05
       SCF_GUESS  RESTART
       &OT  T
         MINIMIZER  DIIS
         PRECONDITIONER  FULL_SINGLE_INVERSE
       &END OT
     &END SCF
     &MGRID
       NGRIDS  4
       CUTOFF     5.0000000000000000E+02
       REL_CUTOFF     3.0000000000000000E+01
     &END MGRID
     &XC
       DENSITY_CUTOFF     1.0000000000000000E-10
       GRADIENT_CUTOFF     1.0000000000000000E-10
       TAU_CUTOFF     1.0000000000000000E-10
       &XC_FUNCTIONAL  NO_SHORTCUT
         &PBE  T
         &END PBE
       &END XC_FUNCTIONAL
     &END XC
   &END DFT
   &SUBSYS
     &CELL
       A     2.5000000000000004E+01    0.0000000000000000E+00    0.0000000000000000E+00
       B     0.0000000000000000E+00    2.5000000000000004E+01    0.0000000000000000E+00
       C     0.0000000000000000E+00    0.0000000000000000E+00    2.5000000000000004E+01
       PERIODIC  XYZ
       MULTIPLE_UNIT_CELL  1 1 1
     &END CELL
     &COORD
C    2.3389445716910005E+00    5.6481291876310036E-01    8.9038308770867269E-01
C    1.4753485201891421E+00   -5.2769657726150920E-01    2.3275445835104330E-01
C    1.7713562512329306E+00   -8.5723892127290513E-01   -1.2464526393530413E+00
O    9.6180329648659568E-01    3.6104444655109176E-03   -2.1584013187350779E+00
C    1.2991803689854318E+00    1.3160520272916549E+00   -2.3000192635678713E+00
C    5.6536125980161522E-01    2.3034782394655795E+00   -1.5787406576572238E+00
C    9.0506934333523215E-01    3.6677142499926636E+00   -1.6360984602756194E+00
C    1.9753938565444495E+00    4.1214414565533133E+00   -2.4435099603023698E+00
C    2.6535488260705362E+00    3.1631562239845699E+00   -3.2122748104046037E+00
C    2.3255712015164951E+00    1.7730154342370135E+00   -3.1690386160569988E+00
C    3.1749654960307350E+00    1.1389515148443152E+00   -4.1900947490193170E+00
N    2.9750771453231573E+00   -6.6439213170605693E-02   -4.7341753357504937E+00
C    3.7114830270317030E+00   -5.6573661172362832E-01   -5.7429224974826161E+00
C    3.1900251278274947E+00   -1.6014985052172315E+00   -6.6419038570174251E+00
C    1.8920322289165126E+00   -2.1293677799557433E+00   -6.7419567781829084E+00
C    1.6288990865563948E+00   -3.0113188141295306E+00   -7.8153794676664070E+00
C    2.6587653473137780E+00   -3.3891584260196308E+00   -8.6937648560036074E+00
C    4.0013491642390688E+00   -2.9264391947318269E+00   -8.5371278875684062E+00
C    4.2460643883257259E+00   -1.9364077551972665E+00   -7.5380785049343562E+00
C    5.3454653318540455E+00   -1.0031346180392644E+00   -7.2238082353633519E+00
N    4.9985175625367386E+00   -2.2993735896979919E-01   -6.1139668500325106E+00
Dy    6.3147830270253307E+00    1.2820987465209897E+00   -4.8593477101101215E+00
N    4.0974355953291210E+00    2.0629649683774933E+00   -4.6774650744714021E+00
C    3.7493400957286540E+00    3.3010255624983795E+00   -4.1856342830043225E+00
N    4.2591883555758372E+00    4.4791691292890441E+00   -4.5885156543448629E+00
C    5.3556238142803201E+00    4.5660491350514416E+00   -5.3530439113421853E+00
N    6.2825019136135101E+00    3.5505130010222623E+00   -5.5962045902547644E+00
C    7.2952306486063625E+00    4.0799128450903659E+00   -6.3689453842907424E+00
N    8.2636144106980325E+00    3.4636925412060138E+00   -7.0658241757320956E+00
C    8.2097036099545555E+00    2.1763321627939840E+00   -7.4422611931607161E+00
N    7.2455958423945237E+00    1.2558363761302143E+00   -7.0366704051282856E+00
C    7.2984406510127293E+00    1.7526789427239978E-01   -7.8957289749876827E+00
N    6.4533768657739810E+00   -8.7233099449481777E-01   -7.9739988519197853E+00
C    8.4137687003155737E+00    3.6579448386597607E-01   -8.8439322572521064E+00
C    9.0337603896990331E+00    1.6075392995638391E+00   -8.5217951093218218E+00
C    1.0167815859260720E+01    2.0569700853099802E+00   -9.2747626211932683E+00
C    1.0571343477914583E+01    1.2410528217727073E+00   -1.0380549468747354E+01
C    9.9169046363566835E+00    3.9869141977815270E-02   -1.0700403967705139E+01
C    8.8290645281978506E+00   -4.2538902233434361E-01   -9.9268191392482983E+00
O    1.0758483977381914E+01    3.2476229105139596E+00   -9.0052455801975011E+00
C    1.2213447266014677E+01    3.3986742920118798E+00   -8.6340193381693826E+00
C    1.2310343612626106E+01    3.2125856869961327E+00   -7.1069982440660846E+00
C    1.1532379800178676E+01    4.2670524658714504E+00   -6.3050971565890164E+00
C    1.3217593558100376E+01    2.5414914239926687E+00   -9.4168565641727664E+00
C    1.3561170465956641E+01    3.0608760538049409E+00   -1.0824731088814156E+01
C    7.1111070346157943E+00    5.5304383873882212E+00   -6.4970929279400851E+00
C    5.8279639631821691E+00    5.8222711452700784E+00   -5.9684431403867295E+00
C    5.3601518563509423E+00    7.1761187348714301E+00   -6.0511685551572993E+00
C    6.3244419127128007E+00    8.1864911778944425E+00   -6.4041390080375171E+00
C    7.6049709737924269E+00    7.8598698181476223E+00   -6.8727842484824704E+00
C    8.0013686022930557E+00    6.5053186801458311E+00   -6.9881704335900396E+00
O    4.1153254888665600E+00    7.6403758873102241E+00   -5.8340685288338623E+00
C    2.9165663582124379E+00    7.0773208748096721E+00   -6.5471202999402545E+00
C    1.6899138700775105E+00    7.6037680593003225E+00   -5.7992434754683737E+00
C    1.4943493314539584E+00    7.0837006908322149E+00   -4.3718864751916824E+00
C    2.9466139421480073E+00    7.6254218119806376E+00   -7.9916423812882007E+00
C    3.9797049797053186E+00    7.0215617380170894E+00   -8.9497717601312701E+00
O    8.5473738389524883E+00    1.3830147599343632E+00   -4.1740933484771769E+00
C    9.7488875971132085E+00    9.8522749436858270E-01   -4.2698544495563082E+00
N    1.0634683336176659E+01    1.0172043124100407E+00   -3.2633778830390434E+00
C    1.0274219559664536E+01    1.5283059067928040E+00   -1.9323808886262863E+00
C    1.2013101916631816E+01    5.3901720990991275E-01   -3.4576068919036174E+00
O    4.3333037668346321E+00    3.0028997546071627E+00   -8.3127624064385035E+00
C    3.3374568281753620E+00    2.6670047068902831E+00   -8.9866741815238758E+00
N    3.2786474737641669E+00    2.6731554871873833E+00   -1.0361425860878773E+01
C    4.4421400524379990E+00    3.0837245433902671E+00   -1.1147028959839281E+01
C    2.0657665765090263E+00    2.2722950300754974E+00   -1.1076737594345536E+01
N    6.1514234813496635E+00    1.5382508306294000E+00   -2.3191100885835527E+00
C    6.2977918452483772E+00    4.5427190059815969E-01   -1.5001952249090118E+00
C    6.4262950126551903E+00   -8.7540851511241835E-01   -2.1697282947524341E+00
N    6.5790655221438543E+00   -8.6485771808255907E-01   -3.5296821170795147E+00
C    6.7594658057439938E+00   -2.0457283733493083E+00   -4.1692742465001915E+00
C    6.7520183717976527E+00   -3.2913932803109436E+00   -3.5208989389413974E+00
C    6.5384578517416445E+00   -3.3103359070340188E+00   -2.1318935469469311E+00
C    6.3942801368914814E+00   -2.0921514726577248E+00   -1.4468638559827478E+00
C    6.3444743765517178E+00    5.9747635540732991E-01   -9.3854480676646077E-02
C    6.2268734992113126E+00    1.8761750307034268E+00    4.7802687226156532E-01
C    6.0668566295929409E+00    2.9884025503829394E+00   -3.6622369958301360E-01
C    6.0370989186377892E+00    2.7644239508431343E+00   -1.7538800148332359E+00
O    4.9177631065984446E+00   -3.4616316815396866E+00   -9.3832526266239817E+00
C    5.9890678285417636E+00   -4.3610333759154454E+00   -8.8687065509803293E+00
C    5.3554242668470371E+00   -5.5778348044264998E+00   -8.1582956665531245E+00
C    4.9649307395232603E+00   -5.4202288235789133E+00   -6.6800582269591651E+00
C    6.7546349591273822E+00   -4.8070363804366192E+00   -1.0119597415205350E+01
C    7.4692599561886182E+00   -3.6904172379086573E+00   -1.0889872285850215E+01
C    1.3901328733859697E+00   -2.3014124558789213E+00   -1.5898728857320514E+00
C    1.7496736829969315E+00   -2.7430645628900248E+00   -3.0139531756883824E+00
H    1.9911724037311023E+00    7.5810617814739600E-01    1.9174334165084932E+00
H    3.3949710231523489E+00    2.5038864432722563E-01    9.5688916301592486E-01
H    2.3063106827805910E+00    1.5231207530545237E+00    3.4647642102060955E-01
H    1.5968585951735665E+00   -1.4596857066977325E+00    8.1099034714232010E-01
H    4.0370251505766802E-01   -2.7580528958834111E-01    3.0696991279799862E-01
H    2.8349583133060503E+00   -6.6706041543758954E-01   -1.4962966838158640E+00
H   -2.5503471486589396E-01    1.9626653142391004E+00   -9.4206070565451738E-01
H    3.3680672792099547E-01    4.3838898558908364E+00   -1.0363715672236307E+00
H    2.2592487400966785E+00    5.1745270403807755E+00   -2.4726721977825794E+00
H    1.1136846620992908E+00   -1.8369344542341826E+00   -6.0343234182215859E+00
H    6.2697285547207848E-01   -3.4243849186705990E+00   -7.9540970766190773E+00
H    2.4692166254447252E+00   -4.0985094618098934E+00   -9.5036851105974041E+00
H    1.1371859961005981E+01    1.6011241585743499E+00   -1.1027007140155652E+01
H    1.0250357603562925E+01   -5.3078841223576800E-01   -1.1571273742067980E+01
H    8.3045504783835202E+00   -1.3482234089493277E+00   -1.0174434065907539E+01
H    1.2371769509370388E+01    4.4620828594321944E+00   -8.8771101991049957E+00
H    1.1985794267273521E+01    2.1867819412418750E+00   -6.8549831181031609E+00
H    1.3383192044149952E+01    3.2699024581189446E+00   -6.8522907479573689E+00
H    1.1592027272655503E+01    4.0687853181014022E+00   -5.2210937603962986E+00
H    1.1958521523404766E+01    5.2705765560020987E+00   -6.4744482011204534E+00
H    1.0470004315734080E+01    4.2821318250983831E+00   -6.5973084141372453E+00
H    1.4141644052620533E+01    2.5379579863600057E+00   -8.8132446952040748E+00
H    1.2893222439254474E+01    1.4856398062629845E+00   -9.4328618052765449E+00
H    1.4281803556867647E+01    2.3928174472707728E+00   -1.1319328027209435E+01
H    1.2679444347717475E+01    3.1557635762951550E+00   -1.1479335384122242E+01
H    1.4024640301469042E+01    4.0585217097035189E+00   -1.0762313523766649E+01
H    5.9874507239659192E+00    9.2256683929541801E+00   -6.3805622636721910E+00
H    8.2856092093480598E+00    8.6552974808552943E+00   -7.1827226683626284E+00
H    8.9714012006870831E+00    6.2123287111543055E+00   -7.3966125067731392E+00
H    2.9926081495107697E+00    5.9772039398292751E+00   -6.5138081714175451E+00
H    1.7343065875128754E+00    8.7071208581165251E+00   -5.8104510984992048E+00
H    8.1195895585297084E-01    7.3304900514068656E+00   -6.4104369043740759E+00
H    1.3176992985281639E+00    5.9971263963806356E+00   -4.3706600288736892E+00
H    2.3736012707489778E+00    7.2984325422665481E+00   -3.7421990592784216E+00
H    6.1976915894946094E-01    7.5683040500054384E+00   -3.9098462869533495E+00
H    1.9321314948303021E+00    7.4602676478984735E+00   -8.3977616176047167E+00
H    3.0664904520607976E+00    8.7239589336480101E+00   -7.9296507938480483E+00
H    3.8436395134487893E+00    5.9337946749463288E+00   -9.0687959536505378E+00
H    3.8894392747517523E+00    7.4929097681909944E+00   -9.9427970227559772E+00
H    5.0161954375488653E+00    7.1960475414773564E+00   -8.6187431973493318E+00
H    1.0153000809140385E+01    5.8827648156767653E-01   -5.2199193224758558E+00
H    1.0284806706608260E+01    7.0558755347443169E-01   -1.2020856368244641E+00
H    1.1003283542438089E+01    2.2954839678270007E+00   -1.6237053861871011E+00
H    9.2696779427115246E+00    1.9675006365181180E+00   -1.9818745691221080E+00
H    1.2279159139010829E+01   -1.6904102927547324E-01   -2.6597906487817462E+00
H    1.2097448423012251E+01    2.7171635154450847E-02   -4.4260558566398567E+00
H    1.2718381017325433E+01    1.3831504915663257E+00   -3.4337233527437609E+00
H    2.3825476795235891E+00    2.3275660549211459E+00   -8.5267110758102280E+00
H    5.2587326962497825E+00    3.3354656439914780E+00   -1.0457801155013936E+01
H    4.7564366559662332E+00    2.2698915956536934E+00   -1.1822380331399865E+01
H    4.1893207810146569E+00    3.9631899738273035E+00   -1.1763413540041270E+01
H    1.3014022030631907E+00    1.9462061936536579E+00   -1.0357043449033847E+01
H    1.6717234190128578E+00    3.1198471892603239E+00   -1.1662473250606055E+01
H    2.2841057922676677E+00    1.4431761700038068E+00   -1.1771263208683264E+01
H    6.9135222393618809E+00   -1.9889922295705404E+00   -5.2516671084426845E+00
H    6.8877752482734085E+00   -4.2089532397778289E+00   -4.0957761110613937E+00
H    6.4906377681036727E+00   -4.2573082183877560E+00   -1.5866133652388583E+00
H    6.2397791539802911E+00   -2.0980980055166500E+00   -3.6840777703629118E-01
H    6.4872177022338544E+00   -2.6909667368188550E-01    5.5395025754358407E-01
H    6.2603220235156360E+00    1.9995240504768952E+00    1.5637562228883015E+00
H    5.9704457537579945E+00    4.0019296425687099E+00    2.8513398491566665E-02
H    5.9177316354126104E+00    3.6069458664049590E+00   -2.4433903461326385E+00
H    6.6245439206244319E+00   -3.7663654828961453E+00   -8.1866543982275317E+00
H    4.4832333761785410E+00   -5.8958780727862576E+00   -8.7580195590128440E+00
H    6.0829865735229749E+00   -6.4032344781212442E+00   -8.2394996283169295E+00
H    4.5241583070299400E+00   -6.3576978603774226E+00   -6.3049452065871030E+00
H    5.8513112292260328E+00   -5.2023474041929028E+00   -6.0598102381861159E+00
H    4.2231491069770399E+00   -4.6228433324962737E+00   -6.5084515192988253E+00
H    7.4921765338761794E+00   -5.5617717722061633E+00   -9.7971284541140768E+00
H    6.0386572490941166E+00   -5.3281653626184191E+00   -1.0777078239108389E+01
H    8.3305207191352384E+00   -3.3156370391789229E+00   -1.0311390066041836E+01
H    7.8586861005085984E+00   -4.0681664536050697E+00   -1.1847435190088833E+01
H    6.7870308425773311E+00   -2.8512798759929816E+00   -1.1106740100491006E+01
H    1.8935780950865089E+00   -2.9525727928901220E+00   -8.5498478903320141E-01
H    3.0530402739543988E-01   -2.4134141021036499E+00   -1.4147036825656591E+00
H    1.4078142145145283E+00   -3.7750951326958981E+00   -3.1985473418698613E+00
H    1.2801184301124235E+00   -2.0818989998291433E+00   -3.7552958542590620E+00
H    2.8405096928994102E+00   -2.7100860428464477E+00   -3.1824259559874641E+00
     &END COORD
     &KIND Dy
       BASIS_SET DZVP-MOLOPT-SR-GTH
       POTENTIAL GTH-PBE-q20
       &POTENTIAL
 4 6 0 10
  0.5102968700000000E+00 2  0.1767093508000000E+02 -0.8678777000000000E+00
 4
  0.4421234800000000E+00 2 -0.2715733840000000E+01  0.4017884260000000E+01
 -0.5187066270000000E+01
  0.4501723000000000E+00 2 -0.2773475350000000E+01  0.2201152450000000E+01
 -0.2604438700000000E+01
  0.4711651400000000E+00 1 -0.7522756100000000E+00
  0.2618074100000000E+00 1 -0.2424856414000000E+02
         # Potential name:  GTH-PBE-Q20  for symbol:  DY
         # Potential read from the potential filename: ../POTENTIAL
       &END POTENTIAL
     &END KIND
     &KIND Tb
       BASIS_SET DZVP-MOLOPT-SR-GTH
       POTENTIAL GTH-PBE-q19
     &END KIND
     &KIND Ho
       BASIS_SET DZVP-MOLOPT-SR-GTH
       POTENTIAL GTH-PBE-q21
     &END KIND
     &KIND Gd
       BASIS_SET DZVP-MOLOPT-SR-GTH
       POTENTIAL GTH-PBE-q18
     &END KIND
     &KIND Lu
       BASIS_SET DZVP-MOLOPT-SR-GTH
       POTENTIAL GTH-PBE-q25
     &END KIND
     &KIND Pm
       BASIS_SET DZVP-MOLOPT-SR-GTH
       POTENTIAL GTH-PBE-q15
     &END KIND
     &KIND Tm
       BASIS_SET DZVP-MOLOPT-SR-GTH
       POTENTIAL GTH-PBE-q23
     &END KIND
     &KIND F
       BASIS_SET DZVP-GTH-PADE
       POTENTIAL GTH-PBE-q7
     &END KIND
     &KIND S
       BASIS_SET DZVP-GTH-PADE
       POTENTIAL GTH-PBE-q6
     &END KIND
     &KIND Na
       BASIS_SET DZVP-GTH-PADE
       POTENTIAL GTH-PBE-q9
     &END KIND
     &KIND B
       BASIS_SET DZVP-GTH-PADE
       POTENTIAL GTH-PBE-q3
     &END KIND
     &KIND Cl
       BASIS_SET DZVP-GTH-PADE
       POTENTIAL GTH-PBE-q7
     &END KIND
     &KIND H
       BASIS_SET DZVP-GTH-PADE
       POTENTIAL GTH-PBE-q1
       &POTENTIAL
 1
  0.2000000000000000E+00 2 -0.4178900440000000E+01  0.7244633100000000E+00
 0
         # Potential name:  GTH-PBE-Q1  for symbol:  H
         # Potential read from the potential filename: ../POTENTIAL
       &END POTENTIAL
     &END KIND
     &KIND N
       BASIS_SET DZVP-GTH-PADE
       POTENTIAL GTH-PBE-q5
       &POTENTIAL
 2 3
  0.2837905100000000E+00 2 -0.1241522559000000E+02  0.1868095920000000E+01
 2
  0.2554050000000000E+00 1  0.1363026257000000E+02
  0.2454945300000000E+00 0
         # Potential name:  GTH-PBE-Q5  for symbol:  N
         # Potential read from the potential filename: ../POTENTIAL
       &END POTENTIAL
     &END KIND
     &KIND O
       BASIS_SET DZVP-GTH-PADE
       POTENTIAL GTH-PBE-q6
       &POTENTIAL
 2 4
  0.2445543000000000E+00 2 -0.1666721480000000E+02  0.2487311320000000E+01
 2
  0.2209559200000000E+00 1  0.1833745811000000E+02
  0.2113324700000000E+00 0
         # Potential name:  GTH-PBE-Q6  for symbol:  O
         # Potential read from the potential filename: ../POTENTIAL
       &END POTENTIAL
     &END KIND
     &KIND C
       BASIS_SET DZVP-GTH-PADE
       POTENTIAL GTH-PBE-q4
       &POTENTIAL
 2 2
  0.3384712400000000E+00 2 -0.8803673979999999E+01  0.1339210850000000E+01
 2
  0.3025757500000000E+00 1  0.9622486650000001E+01
  0.2915069400000000E+00 0
         # Potential name:  GTH-PBE-Q4  for symbol:  C
         # Potential read from the potential filename: ../POTENTIAL
       &END POTENTIAL
     &END KIND
     &TOPOLOGY
       COORD_FILE_NAME ../../Dy_L9_L25_DMF_DMF.xyz
       COORD_FILE_FORMAT  XYZ
       NUMBER_OF_ATOMS  165
       MULTIPLE_UNIT_CELL  1 1 1
     &END TOPOLOGY
   &END SUBSYS
 &END FORCE_EVAL
