 # Version information for this restart file 
 # current date 2023-04-10 16:44:25.446
 # current working dir /mnt/scratch2/users/40265864/MSc_ML_MM/ln_replacements/xyz/Dy_L9_L25_DMF_DMF/geometry_optimisation_2/run-0
 # Program compiled at                              Mon 24 Oct 18:14:20 BST 2022
 # Program compiled on                          login1.pri.kelvin2.alces.network
 # Program compiled for                                                    local
 # Source code revision number                                         svn:17462
 &GLOBAL
   PRINT_LEVEL  LOW
   PROJECT_NAME dy_complex
   RUN_TYPE  GEO_OPT
 &END GLOBAL
 &MOTION
   &GEO_OPT
     TYPE  MINIMIZATION
     OPTIMIZER  BFGS
     MAX_ITER  100
     MAX_DR     1.0000000000000001E-01
     MAX_FORCE     1.0000000000000001E-01
     RMS_DR     1.0000000000000000E-02
     RMS_FORCE     1.0000000000000000E-02
     STEP_START_VAL  50
     &BFGS
       TRUST_RADIUS     2.9999999999999999E-01
     &END BFGS
   &END GEO_OPT
 &END MOTION
 &FORCE_EVAL
   METHOD  QS
   &DFT
     BASIS_SET_FILE_NAME ../BASIS_MOLOPT_UCL
     BASIS_SET_FILE_NAME BASIS_SET
     POTENTIAL_FILE_NAME ../POTENTIAL
     UKS  T
     MULTIPLICITY  0
     CHARGE  3
     &SCF
       MAX_SCF  200
       EPS_SCF     5.0000000000000002E-05
       SCF_GUESS  RESTART
       &OT  T
         MINIMIZER  DIIS
         PRECONDITIONER  FULL_SINGLE_INVERSE
       &END OT
     &END SCF
     &MGRID
       NGRIDS  4
       CUTOFF     5.0000000000000000E+02
       REL_CUTOFF     3.0000000000000000E+01
     &END MGRID
     &XC
       DENSITY_CUTOFF     1.0000000000000000E-10
       GRADIENT_CUTOFF     1.0000000000000000E-10
       TAU_CUTOFF     1.0000000000000000E-10
       &XC_FUNCTIONAL  NO_SHORTCUT
         &PBE  T
         &END PBE
       &END XC_FUNCTIONAL
     &END XC
   &END DFT
   &SUBSYS
     &CELL
       A     2.5000000000000004E+01    0.0000000000000000E+00    0.0000000000000000E+00
       B     0.0000000000000000E+00    2.5000000000000004E+01    0.0000000000000000E+00
       C     0.0000000000000000E+00    0.0000000000000000E+00    2.5000000000000004E+01
       PERIODIC  XYZ
       MULTIPLE_UNIT_CELL  1 1 1
     &END CELL
     &COORD
C    2.3415270435414985E+00    5.6430617175296627E-01    8.8470380045352670E-01
C    1.4653102754727603E+00   -5.2259164356331478E-01    2.3299417695626698E-01
C    1.7561298035502553E+00   -8.5930517198184364E-01   -1.2471175618894952E+00
O    9.3876081962747560E-01   -7.6473519657328977E-04   -2.1550376634855581E+00
C    1.2848510113070846E+00    1.3083756853721806E+00   -2.2994229780973763E+00
C    5.5560364912761773E-01    2.2974467399186849E+00   -1.5762620466636730E+00
C    8.9141851118321114E-01    3.6624618330274852E+00   -1.6361155227683297E+00
C    1.9643854706116652E+00    4.1123453984484826E+00   -2.4420379356096906E+00
C    2.6427334828824165E+00    3.1546757173045092E+00   -3.2101930837590169E+00
C    2.3123766721564469E+00    1.7650483688987946E+00   -3.1671628281164703E+00
C    3.1663773442578016E+00    1.1290799661024700E+00   -4.1822936465500771E+00
N    2.9596428333947098E+00   -7.0951931798194534E-02   -4.7361449102203448E+00
C    3.6979312548866807E+00   -5.7215326877954753E-01   -5.7429592486410579E+00
C    3.1765935327474852E+00   -1.6046852871337987E+00   -6.6479139370487781E+00
C    1.8772285760359995E+00   -2.1329550908315169E+00   -6.7566348130060012E+00
C    1.6225923481846407E+00   -3.0191030493084514E+00   -7.8294433760987072E+00
C    2.6574417752610380E+00   -3.3992960976270044E+00   -8.7013904387811820E+00
C    3.9970845165850419E+00   -2.9292413507577679E+00   -8.5409848311233816E+00
C    4.2361133256704013E+00   -1.9373106305098142E+00   -7.5420176522978863E+00
C    5.3365639051637546E+00   -1.0067436617302181E+00   -7.2201549152363356E+00
N    4.9892536229220203E+00   -2.4013974232570801E-01   -6.1070884075852909E+00
Dy    6.3108043675855097E+00    1.2828581218358091E+00   -4.8531207959256140E+00
N    4.0969248499292519E+00    2.0532989810550033E+00   -4.6623103075496317E+00
C    3.7468418858696890E+00    3.2927767884090278E+00   -4.1723828736458133E+00
N    4.2578550412537766E+00    4.4704223857128254E+00   -4.5749764843046412E+00
C    5.3551111232598689E+00    4.5629453688650932E+00   -5.3375767834307117E+00
N    6.2844354829808831E+00    3.5481942638223707E+00   -5.5762177737865741E+00
C    7.2921107275060093E+00    4.0753576371360909E+00   -6.3547039034305515E+00
N    8.2644473453818748E+00    3.4577819878081626E+00   -7.0451529724264468E+00
C    8.2058883192138072E+00    2.1731820362473115E+00   -7.4281906642328668E+00
N    7.2389191211988368E+00    1.2525685477849655E+00   -7.0269374363907069E+00
C    7.2933770734824330E+00    1.7166833797674011E-01   -7.8864561566230602E+00
N    6.4490574492206152E+00   -8.7654401849341312E-01   -7.9655682751397361E+00
C    8.4142564509585203E+00    3.5975154424010630E-01   -8.8296113546920729E+00
C    9.0356909514760400E+00    1.6009671197447335E+00   -8.5025772444224756E+00
C    1.0168848225770475E+01    2.0504957218430340E+00   -9.2586881368430056E+00
C    1.0585178402474186E+01    1.2297467314258557E+00   -1.0355509323102037E+01
C    9.9269104487026762E+00    3.1581698073066211E-02   -1.0676989926696178E+01
C    8.8313449730314115E+00   -4.3100364584455675E-01   -9.9119305624873348E+00
O    1.0753059563436773E+01    3.2450845256261540E+00   -8.9867378832620588E+00
C    1.2215898375323711E+01    3.4057386432417722E+00   -8.6374946973057458E+00
C    1.2322561372132418E+01    3.2178306166669381E+00   -7.1122959826746373E+00
C    1.1545757170795250E+01    4.2576556888655270E+00   -6.2910389543890455E+00
C    1.3218868149392012E+01    2.5550375012276145E+00   -9.4297308354336291E+00
C    1.3542017058534553E+01    3.0776419833275552E+00   -1.0841333600043104E+01
C    7.1121961578146289E+00    5.5271392154087380E+00   -6.4770814320249501E+00
C    5.8262721655126475E+00    5.8191126476150359E+00   -5.9536491565111138E+00
C    5.3593914855505318E+00    7.1738241951282040E+00   -6.0362088505347353E+00
C    6.3226710228177412E+00    8.1807024769430026E+00   -6.3925735903253820E+00
C    7.6039146342559185E+00    7.8531202262891773E+00   -6.8594633583234526E+00
C    7.9984908745240997E+00    6.4978644090489697E+00   -6.9770299888915037E+00
O    4.1146395068321171E+00    7.6406087154612461E+00   -5.8294879522567440E+00
C    2.9158597915421840E+00    7.0737278702687689E+00   -6.5348317126922932E+00
C    1.6933327820039070E+00    7.6158146251866254E+00   -5.7900452057175196E+00
C    1.5053678920483546E+00    7.1117091899159677E+00   -4.3549481855730976E+00
C    2.9421881461667776E+00    7.6042616205295825E+00   -7.9865281242833106E+00
C    3.9767582299980329E+00    6.9933378540458877E+00   -8.9398291219511350E+00
O    8.5499368009415964E+00    1.3769984609520873E+00   -4.1535740465936257E+00
C    9.7537892302297777E+00    9.8722023060941810E-01   -4.2523662242287310E+00
N    1.0654572901439199E+01    1.0267096407098149E+00   -3.2589047709264700E+00
C    1.0302106764775349E+01    1.5542571803810605E+00   -1.9335465952643900E+00
C    1.2031694312023475E+01    5.4658218597685349E-01   -3.4545921552116368E+00
O    4.2935636916783846E+00    3.0510815267922990E+00   -8.3539769381211979E+00
C    3.3104496327088344E+00    2.6941059506093992E+00   -9.0291378405817913E+00
N    3.2604905709535941E+00    2.6868725644032398E+00   -1.0404173509943764E+01
C    4.4196599394327620E+00    3.0993814636118864E+00   -1.1193744042047852E+01
C    2.0507065529818074E+00    2.2734944092795066E+00   -1.1114621122983650E+01
N    6.1512310774328558E+00    1.5342410264444553E+00   -2.3170675914076106E+00
C    6.3082990987936425E+00    4.5378027234560997E-01   -1.4954089719915415E+00
C    6.4287363497996779E+00   -8.7778893599042984E-01   -2.1595228758260667E+00
N    6.5636973099515128E+00   -8.7648964712542143E-01   -3.5196376653161550E+00
C    6.7448644622152631E+00   -2.0595520149153721E+00   -4.1484360352223746E+00
C    6.7498089725311603E+00   -3.3011216079262646E+00   -3.4946855936206727E+00
C    6.5589371001483929E+00   -3.3126138217235597E+00   -2.1023532009625097E+00
C    6.4159491795629249E+00   -2.0892654281309726E+00   -1.4248045607472335E+00
C    6.3567044041471412E+00    6.0337258173115071E-01   -9.0433456034967580E-02
C    6.2408545853632793E+00    1.8825278760967767E+00    4.7846764040401946E-01
C    6.0751082431022105E+00    2.9911370485914066E+00   -3.7113035311919224E-01
C    6.0383925564730037E+00    2.7618546548636305E+00   -1.7569469209269648E+00
O    4.9183750944946194E+00   -3.4600583294417131E+00   -9.3844406206674797E+00
C    5.9893562553664808E+00   -4.3591147803794863E+00   -8.8681714790075574E+00
C    5.3619620062829485E+00   -5.5746140592369127E+00   -8.1501299901777635E+00
C    4.9810848744893539E+00   -5.4014041224756708E+00   -6.6707447158323241E+00
C    6.7514707115703052E+00   -4.8038123552887466E+00   -1.0121907454113421E+01
C    7.4609961605317094E+00   -3.6887310367995974E+00   -1.0899672124164084E+01
C    1.3659777747935427E+00   -2.3009924977182883E+00   -1.5926461014259909E+00
C    1.7320489034754536E+00   -2.7426258688387253E+00   -3.0155170334269714E+00
H    2.0043476203920845E+00    7.5495422052301164E-01    1.9159022049355607E+00
H    3.3968110469242365E+00    2.4625269340229258E-01    9.3857826027210500E-01
H    2.3060308506979905E+00    1.5252270092063125E+00    3.4576044593255179E-01
H    1.5796058105687756E+00   -1.4537694857851511E+00    8.1468943449337605E-01
H    3.9594160652736204E-01   -2.6061471485032639E-01    3.1178242417546265E-01
H    2.8213243220034947E+00   -6.7647287441004034E-01   -1.4964104723392671E+00
H   -2.6381689177200052E-01    1.9577534565234778E+00   -9.3759416594224476E-01
H    3.2681501048818917E-01    4.3792344698000392E+00   -1.0334738927560261E+00
H    2.2510314868137900E+00    5.1647256029199164E+00   -2.4721297563106117E+00
H    1.0926773262812939E+00   -1.8444129005434080E+00   -6.0531962536948853E+00
H    6.2085206470271204E-01   -3.4333238836344373E+00   -7.9728662157038253E+00
H    2.4742942196681299E+00   -4.1166648100647780E+00   -9.5054258861604950E+00
H    1.1392166130332425E+01    1.5834110850464715E+00   -1.0997032328083156E+01
H    1.0263109897134926E+01   -5.4139552855990336E-01   -1.1545508469194413E+01
H    8.2978872747474828E+00   -1.3466969853886550E+00   -1.0167830591274823E+01
H    1.2367822959862877E+01    4.4700037162889847E+00   -8.8808357208879070E+00
H    1.2009671723612771E+01    2.1863098063119422E+00   -6.8623547812698868E+00
H    1.3396395331600743E+01    3.2814983471871186E+00   -6.8670027111911685E+00
H    1.1643769627171386E+01    4.0596274296534931E+00   -5.2099907513338106E+00
H    1.1943662427742805E+01    5.2702232879954334E+00   -6.4735850032357201E+00
H    1.0474501606444868E+01    4.2524944636277624E+00   -6.5503037582004620E+00
H    1.4149939993411900E+01    2.5585523110760651E+00   -8.8369601428855908E+00
H    1.2901913473084381E+01    1.4968717042193738E+00   -9.4435712105832987E+00
H    1.4268851628737552E+01    2.4217499422718785E+00   -1.1344069335930071E+01
H    1.2653140223485480E+01    3.1575476776952884E+00   -1.1488024760570934E+01
H    1.3989253427786201E+01    4.0832794737514240E+00   -1.0786647451376320E+01
H    5.9877467372637767E+00    9.2202648683091617E+00   -6.3579369091310491E+00
H    8.2848082385495960E+00    8.6488465626048914E+00   -7.1713563621309628E+00
H    8.9683852322137803E+00    6.2018458378495964E+00   -7.3838793695689109E+00
H    2.9884159071645344E+00    5.9745538164252849E+00   -6.4901996685479109E+00
H    1.7434169457189019E+00    8.7177431130427063E+00   -5.8110074636703413E+00
H    8.1325549468406688E-01    7.3378145045505345E+00   -6.3947860707039439E+00
H    1.3224824020476544E+00    6.0251125617193573E+00   -4.3422408357714888E+00
H    2.3875112353274321E+00    7.3270646478785446E+00   -3.7305043854913107E+00
H    6.3414643965701845E-01    7.6024927692155062E+00   -3.8943899448136108E+00
H    1.9276323491583467E+00    7.4257373857099847E+00   -8.3877739266225060E+00
H    3.0558202971678425E+00    8.7028969491135602E+00   -7.9416614726227985E+00
H    3.8523992603371644E+00    5.9012444706265477E+00   -9.0314693145930054E+00
H    3.8677924477752934E+00    7.4380957569082486E+00   -9.9420799383116769E+00
H    5.0148180614848687E+00    7.1885553021104478E+00   -8.6219051904470501E+00
H    1.0146859468443029E+01    5.7123504796437941E-01   -5.2033253871155036E+00
H    1.0334265454319979E+01    7.4151505273209761E-01   -1.1904324357042126E+00
H    1.1027521002403155E+01    2.3289029765535365E+00   -1.6440557477287459E+00
H    9.2929666394826320E+00    1.9818806737231420E+00   -1.9792543183515054E+00
H    1.2280264433617871E+01   -1.9384322983645827E-01   -2.6801564506715314E+00
H    1.2132004932041468E+01    7.3514532663980767E-02   -4.4402408883569633E+00
H    1.2742113803257425E+01    1.3883185450188058E+00   -3.3812367701970243E+00
H    2.3613710862439672E+00    2.3450732078243530E+00   -8.5670145616888185E+00
H    5.2429389492320917E+00    3.3418752284161295E+00   -1.0508426015985531E+01
H    4.7264983271595575E+00    2.2832628403013482E+00   -1.1870159678977636E+01
H    4.1671432172659921E+00    3.9810254601670430E+00   -1.1806949509864141E+01
H    1.2874739830693458E+00    1.9499550950559921E+00   -1.0391307882007739E+01
H    1.6508650115610231E+00    3.1131767420723606E+00   -1.1708998535881427E+01
H    2.2714169443277625E+00    1.4369385065734706E+00   -1.1798696459792527E+01
H    6.8683274249429349E+00   -2.0108438531552690E+00   -5.2388218461373297E+00
H    6.8871179430124858E+00   -4.2215953395247663E+00   -4.0626648627260593E+00
H    6.5269173312158273E+00   -4.2553581955954387E+00   -1.5489699551538476E+00
H    6.2741327150616080E+00   -2.0871808827758120E+00   -3.4568470242104427E-01
H    6.5061546223406754E+00   -2.6113960936500080E-01    5.5887930244135564E-01
H    6.2767638610854029E+00    2.0094833516430164E+00    1.5634097931712045E+00
H    5.9812890587335046E+00    4.0058636671950136E+00    2.0407757530312199E-02
H    5.9097416591030294E+00    3.5994880463498049E+00   -2.4488957467846442E+00
H    6.6293487526722936E+00   -3.7610095558837298E+00   -8.1919895942301331E+00
H    4.4871273857535439E+00   -5.8968180834037547E+00   -8.7430492697419364E+00
H    6.0914515079147744E+00   -6.3985897987116918E+00   -8.2290491251735212E+00
H    4.5497513742871050E+00   -6.3374371417567819E+00   -6.2809375446377977E+00
H    5.8710090554735768E+00   -5.1686405996835116E+00   -6.0599929422243992E+00
H    4.2348606712949497E+00   -4.6080302729648928E+00   -6.5035088407806478E+00
H    7.4918277385054246E+00   -5.5577036761438849E+00   -9.8039626333321515E+00
H    6.0343899407602271E+00   -5.3313646193790278E+00   -1.0775287542339546E+01
H    8.3232645347578487E+00   -3.3093038585720755E+00   -1.0327194105701521E+01
H    7.8466506169859755E+00   -4.0698243082372150E+00   -1.1857977020690749E+01
H    6.7752844211294176E+00   -2.8536312194629434E+00   -1.1118634705080591E+01
H    1.8577432658608612E+00   -2.9594837681942563E+00   -8.5561385277467350E-01
H    2.8033311798204763E-01   -2.4108603489295266E+00   -1.4252130083780894E+00
H    1.3922242798040323E+00   -3.7720280684915664E+00   -3.2051211812080282E+00
H    1.2704286440665491E+00   -2.0748268221938622E+00   -3.7574536890347829E+00
H    2.8242721481221986E+00   -2.7121194414090799E+00   -3.1763691636370552E+00
     &END COORD
     &KIND Dy
       BASIS_SET DZVP-MOLOPT-SR-GTH
       POTENTIAL GTH-PBE-q20
       &POTENTIAL
 4 6 0 10
  0.5102968700000000E+00 2  0.1767093508000000E+02 -0.8678777000000000E+00
 4
  0.4421234800000000E+00 2 -0.2715733840000000E+01  0.4017884260000000E+01
 -0.5187066270000000E+01
  0.4501723000000000E+00 2 -0.2773475350000000E+01  0.2201152450000000E+01
 -0.2604438700000000E+01
  0.4711651400000000E+00 1 -0.7522756100000000E+00
  0.2618074100000000E+00 1 -0.2424856414000000E+02
         # Potential name:  GTH-PBE-Q20  for symbol:  DY
         # Potential read from the potential filename: ../POTENTIAL
       &END POTENTIAL
     &END KIND
     &KIND Tb
       BASIS_SET DZVP-MOLOPT-SR-GTH
       POTENTIAL GTH-PBE-q19
     &END KIND
     &KIND Ho
       BASIS_SET DZVP-MOLOPT-SR-GTH
       POTENTIAL GTH-PBE-q21
     &END KIND
     &KIND Gd
       BASIS_SET DZVP-MOLOPT-SR-GTH
       POTENTIAL GTH-PBE-q18
     &END KIND
     &KIND Lu
       BASIS_SET DZVP-MOLOPT-SR-GTH
       POTENTIAL GTH-PBE-q25
     &END KIND
     &KIND Pm
       BASIS_SET DZVP-MOLOPT-SR-GTH
       POTENTIAL GTH-PBE-q15
     &END KIND
     &KIND Tm
       BASIS_SET DZVP-MOLOPT-SR-GTH
       POTENTIAL GTH-PBE-q23
     &END KIND
     &KIND F
       BASIS_SET DZVP-GTH-PADE
       POTENTIAL GTH-PBE-q7
     &END KIND
     &KIND S
       BASIS_SET DZVP-GTH-PADE
       POTENTIAL GTH-PBE-q6
     &END KIND
     &KIND Na
       BASIS_SET DZVP-GTH-PADE
       POTENTIAL GTH-PBE-q9
     &END KIND
     &KIND B
       BASIS_SET DZVP-GTH-PADE
       POTENTIAL GTH-PBE-q3
     &END KIND
     &KIND Cl
       BASIS_SET DZVP-GTH-PADE
       POTENTIAL GTH-PBE-q7
     &END KIND
     &KIND H
       BASIS_SET DZVP-GTH-PADE
       POTENTIAL GTH-PBE-q1
       &POTENTIAL
 1
  0.2000000000000000E+00 2 -0.4178900440000000E+01  0.7244633100000000E+00
 0
         # Potential name:  GTH-PBE-Q1  for symbol:  H
         # Potential read from the potential filename: ../POTENTIAL
       &END POTENTIAL
     &END KIND
     &KIND N
       BASIS_SET DZVP-GTH-PADE
       POTENTIAL GTH-PBE-q5
       &POTENTIAL
 2 3
  0.2837905100000000E+00 2 -0.1241522559000000E+02  0.1868095920000000E+01
 2
  0.2554050000000000E+00 1  0.1363026257000000E+02
  0.2454945300000000E+00 0
         # Potential name:  GTH-PBE-Q5  for symbol:  N
         # Potential read from the potential filename: ../POTENTIAL
       &END POTENTIAL
     &END KIND
     &KIND O
       BASIS_SET DZVP-GTH-PADE
       POTENTIAL GTH-PBE-q6
       &POTENTIAL
 2 4
  0.2445543000000000E+00 2 -0.1666721480000000E+02  0.2487311320000000E+01
 2
  0.2209559200000000E+00 1  0.1833745811000000E+02
  0.2113324700000000E+00 0
         # Potential name:  GTH-PBE-Q6  for symbol:  O
         # Potential read from the potential filename: ../POTENTIAL
       &END POTENTIAL
     &END KIND
     &KIND C
       BASIS_SET DZVP-GTH-PADE
       POTENTIAL GTH-PBE-q4
       &POTENTIAL
 2 2
  0.3384712400000000E+00 2 -0.8803673979999999E+01  0.1339210850000000E+01
 2
  0.3025757500000000E+00 1  0.9622486650000001E+01
  0.2915069400000000E+00 0
         # Potential name:  GTH-PBE-Q4  for symbol:  C
         # Potential read from the potential filename: ../POTENTIAL
       &END POTENTIAL
     &END KIND
     &TOPOLOGY
       COORD_FILE_NAME ../../Dy_L9_L25_DMF_DMF.xyz
       COORD_FILE_FORMAT  XYZ
       NUMBER_OF_ATOMS  165
       MULTIPLE_UNIT_CELL  1 1 1
     &END TOPOLOGY
   &END SUBSYS
 &END FORCE_EVAL
