 # Version information for this restart file 
 # current date 2023-04-10 16:43:27.115
 # current working dir /mnt/scratch2/users/40265864/MSc_ML_MM/ln_replacements/xyz/Dy_L9_L25_DMF_DMF/geometry_optimisation_2/run-0
 # Program compiled at                              Mon 24 Oct 18:14:20 BST 2022
 # Program compiled on                          login1.pri.kelvin2.alces.network
 # Program compiled for                                                    local
 # Source code revision number                                         svn:17462
 &GLOBAL
   PRINT_LEVEL  LOW
   PROJECT_NAME dy_complex
   RUN_TYPE  GEO_OPT
 &END GLOBAL
 &MOTION
   &GEO_OPT
     TYPE  MINIMIZATION
     OPTIMIZER  BFGS
     MAX_ITER  100
     MAX_DR     1.0000000000000001E-01
     MAX_FORCE     1.0000000000000001E-01
     RMS_DR     1.0000000000000000E-02
     RMS_FORCE     1.0000000000000000E-02
     STEP_START_VAL  49
     &BFGS
       TRUST_RADIUS     2.9999999999999999E-01
     &END BFGS
   &END GEO_OPT
 &END MOTION
 &FORCE_EVAL
   METHOD  QS
   &DFT
     BASIS_SET_FILE_NAME ../BASIS_MOLOPT_UCL
     BASIS_SET_FILE_NAME BASIS_SET
     POTENTIAL_FILE_NAME ../POTENTIAL
     UKS  T
     MULTIPLICITY  0
     CHARGE  3
     &SCF
       MAX_SCF  200
       EPS_SCF     5.0000000000000002E-05
       SCF_GUESS  RESTART
       &OT  T
         MINIMIZER  DIIS
         PRECONDITIONER  FULL_SINGLE_INVERSE
       &END OT
     &END SCF
     &MGRID
       NGRIDS  4
       CUTOFF     5.0000000000000000E+02
       REL_CUTOFF     3.0000000000000000E+01
     &END MGRID
     &XC
       DENSITY_CUTOFF     1.0000000000000000E-10
       GRADIENT_CUTOFF     1.0000000000000000E-10
       TAU_CUTOFF     1.0000000000000000E-10
       &XC_FUNCTIONAL  NO_SHORTCUT
         &PBE  T
         &END PBE
       &END XC_FUNCTIONAL
     &END XC
   &END DFT
   &SUBSYS
     &CELL
       A     2.5000000000000004E+01    0.0000000000000000E+00    0.0000000000000000E+00
       B     0.0000000000000000E+00    2.5000000000000004E+01    0.0000000000000000E+00
       C     0.0000000000000000E+00    0.0000000000000000E+00    2.5000000000000004E+01
       PERIODIC  XYZ
       MULTIPLE_UNIT_CELL  1 1 1
     &END CELL
     &COORD
C    2.3397780683440761E+00    5.6254216038311589E-01    8.8685626523450856E-01
C    1.4646820075985651E+00   -5.2376549840070930E-01    2.3205104019487147E-01
C    1.7573860841238012E+00   -8.5923429732234813E-01   -1.2472784849308347E+00
O    9.4472578794382600E-01    1.9214198029938153E-03   -2.1572872389411648E+00
C    1.2846520413116760E+00    1.3119994703984086E+00   -2.2993822528223289E+00
C    5.5295331958120597E-01    2.3014105908964702E+00   -1.5779711949010633E+00
C    8.9542012105393154E-01    3.6650238889735487E+00   -1.6344353118132171E+00
C    1.9659328389151569E+00    4.1156042886848176E+00   -2.4433024404354775E+00
C    2.6447061562258147E+00    3.1554406001722071E+00   -3.2090137231232183E+00
C    2.3125351871274713E+00    1.7664309538899483E+00   -3.1678713326452894E+00
C    3.1642261155032410E+00    1.1306892119455356E+00   -4.1850954848458422E+00
N    2.9592785594089732E+00   -7.0835492288827281E-02   -4.7358415709105683E+00
C    3.6981844712762380E+00   -5.7068650261519027E-01   -5.7421200119707629E+00
C    3.1769312518630421E+00   -1.6040676371734426E+00   -6.6457307535253030E+00
C    1.8786909017700790E+00   -2.1336875009147511E+00   -6.7529872847409189E+00
C    1.6220607666670448E+00   -3.0173704230133365E+00   -7.8271098110435657E+00
C    2.6558169417190376E+00   -3.3954925812274497E+00   -8.7007452882013698E+00
C    3.9964850054592285E+00   -2.9285054945838085E+00   -8.5380508924950078E+00
C    4.2352564403798505E+00   -1.9339985428333750E+00   -7.5418657999068852E+00
C    5.3361133196287867E+00   -1.0049634529717189E+00   -7.2190242222985752E+00
N    4.9886824200532214E+00   -2.3676209218751673E-01   -6.1067115431773216E+00
Dy    6.3119913262539304E+00    1.2769861341266495E+00   -4.8530598901871702E+00
N    4.0966276719406745E+00    2.0527272208225313E+00   -4.6624898701188311E+00
C    3.7449183061864693E+00    3.2926437945435763E+00   -4.1756107529381481E+00
N    4.2547016521206027E+00    4.4704287930522160E+00   -4.5784844147316566E+00
C    5.3542745627864425E+00    4.5616359811230360E+00   -5.3370133515379123E+00
N    6.2817353839166037E+00    3.5459141618241126E+00   -5.5792694537441516E+00
C    7.2959842046363450E+00    4.0745499378122156E+00   -6.3491298229021380E+00
N    8.2648701676015559E+00    3.4580593599714851E+00   -7.0453763813085875E+00
C    8.2086397406191853E+00    2.1720788785319702E+00   -7.4261329604991495E+00
N    7.2391417042233037E+00    1.2535372306870263E+00   -7.0270731550053496E+00
C    7.2925403268083908E+00    1.7301499877764420E-01   -7.8870951170214250E+00
N    6.4466631252942257E+00   -8.7360178799991661E-01   -7.9670730781121870E+00
C    8.4150724999676090E+00    3.5957157745985552E-01   -8.8288765745249727E+00
C    9.0345585174076035E+00    1.6023322952667094E+00   -8.5045157679150272E+00
C    1.0170206187952861E+01    2.0497088409324560E+00   -9.2584152258272567E+00
C    1.0580706813721914E+01    1.2307592166979682E+00   -1.0358307254240270E+01
C    9.9255750229069051E+00    3.0630520594247507E-02   -1.0678153730410333E+01
C    8.8305962807627765E+00   -4.3082849704824566E-01   -9.9119798490544877E+00
O    1.0755853275564048E+01    3.2454795869327229E+00   -8.9938560833385424E+00
C    1.2216513892454010E+01    3.4039300403864687E+00   -8.6378829391643279E+00
C    1.2325710249642984E+01    3.2177198656600159E+00   -7.1114429880559067E+00
C    1.1544029608136841E+01    4.2582539483133086E+00   -6.2937148679565995E+00
C    1.3220183095226171E+01    2.5529345481421286E+00   -9.4291578174882389E+00
C    1.3545760316345582E+01    3.0785239236431354E+00   -1.0839395532949769E+01
C    7.1100447532965649E+00    5.5238949053991249E+00   -6.4823540677717171E+00
C    5.8264643691242126E+00    5.8163676919384075E+00   -5.9552946749358062E+00
C    5.3577711865889377E+00    7.1703483840751892E+00   -6.0411469068934318E+00
C    6.3230211210982592E+00    8.1782681743330716E+00   -6.3939687093032704E+00
C    7.6050059510910248E+00    7.8504822688428737E+00   -6.8582050493428612E+00
C    8.0020554038784528E+00    6.4961374806492094E+00   -6.9741127971884431E+00
O    4.1146187860347867E+00    7.6358300630449145E+00   -5.8288270912038147E+00
C    2.9159685332838579E+00    7.0724600660825834E+00   -6.5362971284418601E+00
C    1.6934455454444315E+00    7.6125580285574133E+00   -5.7903810558688047E+00
C    1.5001077860716581E+00    7.1107795471770840E+00   -4.3551095151423223E+00
C    2.9400274928635586E+00    7.6077635099321279E+00   -7.9855971122299447E+00
C    3.9741230281427704E+00    6.9976959090605702E+00   -8.9392894779707941E+00
O    8.5454890442183569E+00    1.3680482241434480E+00   -4.1430455838694487E+00
C    9.7498863204483452E+00    9.7887423712626065E-01   -4.2549129308950135E+00
N    1.0648456273548954E+01    1.0215373754760815E+00   -3.2596220404559095E+00
C    1.0301019459060516E+01    1.5528540647537625E+00   -1.9312489141326603E+00
C    1.2027956069395129E+01    5.4937431813030191E-01   -3.4526038070936989E+00
O    4.2966125120576937E+00    3.0381772867889061E+00   -8.3593699784434392E+00
C    3.3079299976480061E+00    2.6968141942443253E+00   -9.0290348298236776E+00
N    3.2579127634592782E+00    2.6872353054758547E+00   -1.0404224576129883E+01
C    4.4196935403026769E+00    3.0971461150564772E+00   -1.1191780213445176E+01
C    2.0487216108169291E+00    2.2713338477500371E+00   -1.1116353652409861E+01
N    6.1520442992650155E+00    1.5331786855895069E+00   -2.3180023782045218E+00
C    6.3086586723039781E+00    4.5370268769036909E-01   -1.4947802307395122E+00
C    6.4320535329103965E+00   -8.7774050747657140E-01   -2.1593832931655834E+00
N    6.5687874747446688E+00   -8.7331003179939015E-01   -3.5195449994158983E+00
C    6.7403698370357485E+00   -2.0581843433770328E+00   -4.1555045564962709E+00
C    6.7492165613244275E+00   -3.3002068179331561E+00   -3.4996274915809065E+00
C    6.5608049822944485E+00   -3.3119159433713516E+00   -2.1044065014988478E+00
C    6.4144727137130113E+00   -2.0905350747638600E+00   -1.4293172684795523E+00
C    6.3576205302977007E+00    6.0485141452743185E-01   -9.0042270323352200E-02
C    6.2396045721295854E+00    1.8849456484290315E+00    4.7677967629236040E-01
C    6.0754702362806041E+00    2.9926857695985878E+00   -3.7222489191885633E-01
C    6.0348278234582233E+00    2.7619490776508666E+00   -1.7587510643131388E+00
O    4.9161938709097859E+00   -3.4591708230656431E+00   -9.3829534481832706E+00
C    5.9899253226780909E+00   -4.3545555857072582E+00   -8.8676860199109075E+00
C    5.3613532725299784E+00   -5.5701388508938576E+00   -8.1507687026965581E+00
C    4.9786141920790277E+00   -5.4032661359047438E+00   -6.6714635209990920E+00
C    6.7524543970547946E+00   -4.8008805632524885E+00   -1.0120523942447234E+01
C    7.4618738972606717E+00   -3.6870132926922934E+00   -1.0899609638889878E+01
C    1.3669256747822796E+00   -2.3015655633191283E+00   -1.5919723501379535E+00
C    1.7350580506842885E+00   -2.7414782001213136E+00   -3.0149379750206200E+00
H    2.0008662146921368E+00    7.5401258887812284E-01    1.9167839274994090E+00
H    3.3950329955880068E+00    2.4653932655123523E-01    9.4463335216836775E-01
H    2.3074254001889365E+00    1.5236863333175961E+00    3.4662882962770214E-01
H    1.5818806431938233E+00   -1.4548017602415058E+00    8.1284956267280062E-01
H    3.9581788537026080E-01   -2.6186590004815563E-01    3.1098873508781988E-01
H    2.8205516199160514E+00   -6.7254972518761669E-01   -1.5008333262969611E+00
H   -2.6647887718414376E-01    1.9615893736631249E+00   -9.3917093486612313E-01
H    3.2879214480872376E-01    4.3820232193230968E+00   -1.0335852038713842E+00
H    2.2547383528820806E+00    5.1674932148552299E+00   -2.4688404027283442E+00
H    1.0958598955513852E+00   -1.8461344783551286E+00   -6.0475102714339135E+00
H    6.2105418105926735E-01   -3.4322074107243949E+00   -7.9695006052073110E+00
H    2.4717697422023548E+00   -4.1100957397211539E+00   -9.5073008114258890E+00
H    1.1386164652670219E+01    1.5857377102453800E+00   -1.1001087914872313E+01
H    1.0261123326461774E+01   -5.4325306122154604E-01   -1.1546358731371079E+01
H    8.2995298186017283E+00   -1.3489136492290310E+00   -1.0163669701453159E+01
H    1.2367682632190968E+01    4.4688370547320959E+00   -8.8796775311445142E+00
H    1.2016866550573596E+01    2.1854072858015781E+00   -6.8573036878509352E+00
H    1.3399893667998267E+01    3.2834312393392153E+00   -6.8673717154385896E+00
H    1.1638054706840954E+01    4.0606720190833849E+00   -5.2107500428276525E+00
H    1.1946522321851436E+01    5.2695736075642250E+00   -6.4754661341640327E+00
H    1.0473195046095469E+01    4.2532586402059582E+00   -6.5588740862634793E+00
H    1.4149816873903418E+01    2.5547158777121775E+00   -8.8342661331582590E+00
H    1.2901018711026053E+01    1.4956593283458790E+00   -9.4442683155908274E+00
H    1.4273148732296180E+01    2.4226688423207636E+00   -1.1339758948268415E+01
H    1.2659224436701143E+01    3.1594960028908283E+00   -1.1488236863827510E+01
H    1.3993699136309063E+01    4.0826642568436400E+00   -1.0781560497835274E+01
H    5.9918850636895717E+00    9.2192204299506759E+00   -6.3629245278923365E+00
H    8.2888216201375311E+00    8.6428004797369216E+00   -7.1701945727369694E+00
H    8.9708649170314771E+00    6.1964588644029046E+00   -7.3815858141336914E+00
H    2.9882810381985512E+00    5.9729179612477159E+00   -6.4921496730215082E+00
H    1.7394298144416080E+00    8.7160292150057650E+00   -5.8140794694277860E+00
H    8.1183723667741425E-01    7.3349106020230375E+00   -6.3944518225258680E+00
H    1.3152665082821497E+00    6.0243896002666517E+00   -4.3400053219785253E+00
H    2.3821242096057751E+00    7.3262865488009181E+00   -3.7300134973184234E+00
H    6.2971116848570652E-01    7.6053378641335483E+00   -3.8953384839001601E+00
H    1.9256944831835585E+00    7.4312474188843005E+00   -8.3892355470207942E+00
H    3.0564157216485706E+00    8.7067101187088269E+00   -7.9384428867243386E+00
H    3.8510577215820083E+00    5.9049781939834602E+00   -9.0379032833212225E+00
H    3.8698312345749328E+00    7.4459697111840493E+00   -9.9417924071887818E+00
H    5.0120823292973125E+00    7.1904438743313621E+00   -8.6201948512479518E+00
H    1.0149884935651105E+01    5.6640202337081635E-01   -5.2045530191945382E+00
H    1.0326236566031769E+01    7.4008306883983654E-01   -1.1920820019947669E+00
H    1.1026526942281988E+01    2.3294261015971101E+00   -1.6413280264769594E+00
H    9.2904417257907230E+00    1.9790560193878382E+00   -1.9789873906611772E+00
H    1.2281297567929668E+01   -1.9556170431248626E-01   -2.6791186917627758E+00
H    1.2126947103938020E+01    7.7155059065666984E-02   -4.4445472572444311E+00
H    1.2737410617819853E+01    1.3883079015462187E+00   -3.3877311312830893E+00
H    2.3593076083625859E+00    2.3468607411009215E+00   -8.5662105785030640E+00
H    5.2418394570345228E+00    3.3394962270190307E+00   -1.0505201595770060E+01
H    4.7277305891165629E+00    2.2833296327481465E+00   -1.1870240931476404E+01
H    4.1658131081158221E+00    3.9794887568812349E+00   -1.1803664625100307E+01
H    1.2857755073791235E+00    1.9463857991531641E+00   -1.0393693954502400E+01
H    1.6512312491892136E+00    3.1128156192761813E+00   -1.1708549545971911E+01
H    2.2703969598672646E+00    1.4365673053857715E+00   -1.1802289435712019E+01
H    6.8760108095831711E+00   -2.0059796410126665E+00   -5.2395000538105192E+00
H    6.8826316504523355E+00   -4.2194063104905410E+00   -4.0701693826864647E+00
H    6.5216179962893355E+00   -4.2553567589784125E+00   -1.5557657968812701E+00
H    6.2792598405995683E+00   -2.0910592602328082E+00   -3.4677294949321069E-01
H    6.5077981971798815E+00   -2.5886507779854784E-01    5.6037990461049458E-01
H    6.2768177241536502E+00    2.0126616590990736E+00    1.5617669414527597E+00
H    5.9788026554190674E+00    4.0079377712952766E+00    1.7976926042693159E-02
H    5.9089758291891341E+00    3.5990653884462023E+00   -2.4507179078982215E+00
H    6.6286901609834228E+00   -3.7570830402983599E+00   -8.1906660762957308E+00
H    4.4864428388673776E+00   -5.8921105745349927E+00   -8.7455588373225943E+00
H    6.0890238929488278E+00   -6.3954279540795538E+00   -8.2316223366319949E+00
H    4.5473876844745478E+00   -6.3402879021205329E+00   -6.2856436279345616E+00
H    5.8682237984993408E+00   -5.1744469992912672E+00   -6.0587221558792281E+00
H    4.2332477742627104E+00   -4.6088305416438091E+00   -6.5016641180653698E+00
H    7.4938673175774770E+00   -5.5534685726596225E+00   -9.8002456392021813E+00
H    6.0359582747077480E+00   -5.3306931573888017E+00   -1.0773368178430314E+01
H    8.3248323397407926E+00   -3.3074309690654053E+00   -1.0327935320266445E+01
H    7.8464449202528153E+00   -4.0687373445164550E+00   -1.1857951176638052E+01
H    6.7771328838593279E+00   -2.8512967255955464E+00   -1.1118525248771535E+01
H    1.8615861386024253E+00   -2.9571723754061239E+00   -8.5572357142844901E-01
H    2.8008606363944150E-01   -2.4087357121757305E+00   -1.4264042414131912E+00
H    1.3919132090902160E+00   -3.7711751012977595E+00   -3.2053821621619316E+00
H    1.2744608959556525E+00   -2.0756664676939436E+00   -3.7584052999077282E+00
H    2.8264846277534419E+00   -2.7124443768671269E+00   -3.1771161874402347E+00
     &END COORD
     &KIND Dy
       BASIS_SET DZVP-MOLOPT-SR-GTH
       POTENTIAL GTH-PBE-q20
       &POTENTIAL
 4 6 0 10
  0.5102968700000000E+00 2  0.1767093508000000E+02 -0.8678777000000000E+00
 4
  0.4421234800000000E+00 2 -0.2715733840000000E+01  0.4017884260000000E+01
 -0.5187066270000000E+01
  0.4501723000000000E+00 2 -0.2773475350000000E+01  0.2201152450000000E+01
 -0.2604438700000000E+01
  0.4711651400000000E+00 1 -0.7522756100000000E+00
  0.2618074100000000E+00 1 -0.2424856414000000E+02
         # Potential name:  GTH-PBE-Q20  for symbol:  DY
         # Potential read from the potential filename: ../POTENTIAL
       &END POTENTIAL
     &END KIND
     &KIND Tb
       BASIS_SET DZVP-MOLOPT-SR-GTH
       POTENTIAL GTH-PBE-q19
     &END KIND
     &KIND Ho
       BASIS_SET DZVP-MOLOPT-SR-GTH
       POTENTIAL GTH-PBE-q21
     &END KIND
     &KIND Gd
       BASIS_SET DZVP-MOLOPT-SR-GTH
       POTENTIAL GTH-PBE-q18
     &END KIND
     &KIND Lu
       BASIS_SET DZVP-MOLOPT-SR-GTH
       POTENTIAL GTH-PBE-q25
     &END KIND
     &KIND Pm
       BASIS_SET DZVP-MOLOPT-SR-GTH
       POTENTIAL GTH-PBE-q15
     &END KIND
     &KIND Tm
       BASIS_SET DZVP-MOLOPT-SR-GTH
       POTENTIAL GTH-PBE-q23
     &END KIND
     &KIND F
       BASIS_SET DZVP-GTH-PADE
       POTENTIAL GTH-PBE-q7
     &END KIND
     &KIND S
       BASIS_SET DZVP-GTH-PADE
       POTENTIAL GTH-PBE-q6
     &END KIND
     &KIND Na
       BASIS_SET DZVP-GTH-PADE
       POTENTIAL GTH-PBE-q9
     &END KIND
     &KIND B
       BASIS_SET DZVP-GTH-PADE
       POTENTIAL GTH-PBE-q3
     &END KIND
     &KIND Cl
       BASIS_SET DZVP-GTH-PADE
       POTENTIAL GTH-PBE-q7
     &END KIND
     &KIND H
       BASIS_SET DZVP-GTH-PADE
       POTENTIAL GTH-PBE-q1
       &POTENTIAL
 1
  0.2000000000000000E+00 2 -0.4178900440000000E+01  0.7244633100000000E+00
 0
         # Potential name:  GTH-PBE-Q1  for symbol:  H
         # Potential read from the potential filename: ../POTENTIAL
       &END POTENTIAL
     &END KIND
     &KIND N
       BASIS_SET DZVP-GTH-PADE
       POTENTIAL GTH-PBE-q5
       &POTENTIAL
 2 3
  0.2837905100000000E+00 2 -0.1241522559000000E+02  0.1868095920000000E+01
 2
  0.2554050000000000E+00 1  0.1363026257000000E+02
  0.2454945300000000E+00 0
         # Potential name:  GTH-PBE-Q5  for symbol:  N
         # Potential read from the potential filename: ../POTENTIAL
       &END POTENTIAL
     &END KIND
     &KIND O
       BASIS_SET DZVP-GTH-PADE
       POTENTIAL GTH-PBE-q6
       &POTENTIAL
 2 4
  0.2445543000000000E+00 2 -0.1666721480000000E+02  0.2487311320000000E+01
 2
  0.2209559200000000E+00 1  0.1833745811000000E+02
  0.2113324700000000E+00 0
         # Potential name:  GTH-PBE-Q6  for symbol:  O
         # Potential read from the potential filename: ../POTENTIAL
       &END POTENTIAL
     &END KIND
     &KIND C
       BASIS_SET DZVP-GTH-PADE
       POTENTIAL GTH-PBE-q4
       &POTENTIAL
 2 2
  0.3384712400000000E+00 2 -0.8803673979999999E+01  0.1339210850000000E+01
 2
  0.3025757500000000E+00 1  0.9622486650000001E+01
  0.2915069400000000E+00 0
         # Potential name:  GTH-PBE-Q4  for symbol:  C
         # Potential read from the potential filename: ../POTENTIAL
       &END POTENTIAL
     &END KIND
     &TOPOLOGY
       COORD_FILE_NAME ../../Dy_L9_L25_DMF_DMF.xyz
       COORD_FILE_FORMAT  XYZ
       NUMBER_OF_ATOMS  165
       MULTIPLE_UNIT_CELL  1 1 1
     &END TOPOLOGY
   &END SUBSYS
 &END FORCE_EVAL
