 # Version information for this restart file 
 # current date 2023-03-25 18:58:56.179
 # current working dir /mnt/scratch2/users/40265864/MSc_ML_MM/ln_replacements/xyz/Dy_L9_L2/geometry_optimisation/run-6
 # Program compiled at                              Mon 24 Oct 18:14:20 BST 2022
 # Program compiled on                          login1.pri.kelvin2.alces.network
 # Program compiled for                                                    local
 # Source code revision number                                         svn:17462
 &GLOBAL
   PRINT_LEVEL  LOW
   PROJECT_NAME molecule_name
   RUN_TYPE  GEO_OPT
 &END GLOBAL
 &MOTION
   &GEO_OPT
     OPTIMIZER  BFGS
     MAX_DR     5.0000000000000000E-01
     MAX_FORCE     5.0000000000000000E-01
     RMS_DR     5.0000000000000003E-02
     RMS_FORCE     5.0000000000000003E-02
     STEP_START_VAL  4
   &END GEO_OPT
 &END MOTION
 &FORCE_EVAL
   METHOD  QS
   &DFT
     BASIS_SET_FILE_NAME ../BASIS_MOLOPT_UCL
     BASIS_SET_FILE_NAME BASIS_SET
     POTENTIAL_FILE_NAME ../POTENTIAL
     UKS  T
     MULTIPLICITY  6
     CHARGE  3
     &SCF
       MAX_SCF  50
       EPS_SCF     5.0000000000000002E-05
       SCF_GUESS  RESTART
       &OT  T
         MINIMIZER  DIIS
         PRECONDITIONER  FULL_KINETIC
       &END OT
       &OUTER_SCF  T
         EPS_SCF     5.0000000000000002E-05
         MAX_SCF  20
       &END OUTER_SCF
     &END SCF
     &MGRID
       NGRIDS  2
       CUTOFF     4.0000000000000000E+02
       REL_CUTOFF     5.0000000000000000E+01
     &END MGRID
     &XC
       DENSITY_CUTOFF     1.0000000000000000E-10
       GRADIENT_CUTOFF     1.0000000000000000E-10
       TAU_CUTOFF     1.0000000000000000E-10
       &XC_FUNCTIONAL  NO_SHORTCUT
         &PBE  T
         &END PBE
       &END XC_FUNCTIONAL
     &END XC
   &END DFT
   &SUBSYS
     &CELL
       A     2.1000000000000000E+01    0.0000000000000000E+00    0.0000000000000000E+00
       B     0.0000000000000000E+00    2.1000000000000000E+01    0.0000000000000000E+00
       C     0.0000000000000000E+00    0.0000000000000000E+00    1.8000000000000000E+01
       PERIODIC  NONE
       MULTIPLE_UNIT_CELL  1 1 1
     &END CELL
     &COORD
C    8.4518784284951298E+00    1.0574039124601025E+00   -8.7981700836819616E+00
C    6.9218496824418203E+00    5.6790190943942875E-01   -8.7067761071252736E+00
O    6.3041273875713939E+00    1.1547147243034526E+00   -1.0027998002607946E+01
C    4.8744265400870344E+00    7.9458331942395666E-01   -9.9199399256738801E+00
C    3.9281136210797811E+00    1.6839351244050709E+00   -9.1917185319907464E+00
C    2.5459540799553859E+00    1.3127848232285426E+00   -9.4517377082077090E+00
C    2.1641835212079306E+00    1.0320196454571753E-01   -1.0191968080592144E+01
C    3.0621704305116824E+00   -8.9480326620216999E-01   -1.0771872695375727E+01
C    4.4730440771047526E+00   -5.2416069992998149E-01   -1.0539101720550468E+01
O    5.5514129158517820E+00   -1.3949227676838807E+00   -1.1064669504273068E+01
C    5.5346398983106200E+00   -9.8573929464143184E-01   -1.2592210992024889E+01
C    6.6332017887044534E+00   -1.9589166371273674E+00   -1.3229860226666741E+01
C    7.2570328840878340E-01   -1.8138559046917721E-01   -9.8684275553818068E+00
N    1.2592552341070720E-01   -1.3145191577058271E+00   -1.0521891567126497E+01
C   -1.2251810072969309E+00   -1.4844080790601386E+00   -1.0026653602344039E+01
N   -1.9464551427253700E+00   -8.3024100095923259E-01   -8.9365841709690450E+00
Dy   -1.8177153841730802E+00    1.3271683690136424E+00   -7.9771210541888058E+00
N    2.3050040368358912E-01    7.3469869320290238E-01   -8.8132526879494897E+00
C    1.3087354240501325E+00    1.7321437433308740E+00   -8.6476335795017629E+00
N    1.5419551902114708E+00    2.7064843230653257E+00   -7.5878166311725641E+00
C    8.2994897556713410E-01    2.2552002478677728E+00   -6.3788790085219986E+00
C    1.7411615393312729E+00    2.0950857579618729E+00   -5.1652095405712286E+00
C    3.1675650256159544E+00    2.3884732887263627E+00   -5.0585057548526757E+00
C    3.7050959958085889E+00    1.8664694007839315E+00   -3.7673300270989509E+00
O    5.0287325815993134E+00    2.3073195539655016E+00   -3.2878258555307047E+00
C    5.9885153747200564E+00    1.4372720146200300E+00   -4.1890626391230663E+00
C    7.4127988954967963E+00    1.9956219562088038E+00   -3.7652207113931033E+00
C    3.0034066170539804E+00    8.8093196659485262E-01   -2.8561714794418238E+00
C    1.5633712181328787E+00    5.6599195407057357E-01   -3.0203649169346090E+00
C    1.0234116697542091E+00    1.2367553830582254E+00   -4.2044959138154718E+00
C   -2.7843060565864730E-01    8.6557744899142530E-01   -4.8482397424390875E+00
N   -1.1239825265139338E+00   -5.6927953237460888E-02   -4.1400026918047299E+00
C   -2.2280298408363652E+00   -4.5501262530025210E-01   -4.9838466268165611E+00
N   -2.4780225589096654E+00   -2.6793821754401737E-01   -6.4130350095773485E+00
C   -3.7991675509267679E+00   -9.3147152867255623E-01   -6.6632939056703346E+00
N   -4.3480875460817705E+00   -1.4549535755725769E+00   -7.9175440898158360E+00
C   -3.2949150460245771E+00   -1.4952191373354033E+00   -8.9392234684842649E+00
C   -3.3295469217994635E+00   -2.6237010531189497E+00   -9.9613500388312364E+00
C   -2.0144818369049089E+00   -2.6182910379127842E+00   -1.0623702339884018E+01
C   -1.4384312291026766E+00   -3.6528404089441113E+00   -1.1460426516809648E+01
C   -2.3660972242194820E+00   -4.8004566721685995E+00   -1.1597561943841912E+01
O   -1.9009462569066733E+00   -5.9203278812483173E+00   -1.2457301782115623E+01
C   -1.2910872115691410E+00   -6.8960972539044176E+00   -1.1357337409398459E+01
C   -9.0186971341440947E-01   -8.1663076250191384E+00   -1.2228109080979003E+01
C   -3.6290401605809168E+00   -4.9298768947192375E+00   -1.0751056381441904E+01
C   -4.2050485846596102E+00   -3.8018652522742862E+00   -9.9631773184696808E+00
O   -4.4243307113333357E+00   -6.1741377135630104E+00   -1.0883803104661359E+01
C   -5.2696873579380084E+00   -5.8093413967651504E+00   -1.2180542408572167E+01
C   -6.2671942879648146E+00   -7.0454595985605390E+00   -1.2288863529653023E+01
C   -4.3357386053842459E+00   -1.5088611776795517E+00   -5.3643634352896976E+00
C   -3.2951350588884667E+00   -1.3052004268882722E+00   -4.3436046922567639E+00
C   -3.0899339389177567E+00   -2.0464686571916078E+00   -3.1120647544307087E+00
C   -4.1278292971530766E+00   -3.0952014865095467E+00   -2.9231468380801990E+00
C   -5.1524312895172608E+00   -3.3885504157287749E+00   -4.0214597673190404E+00
C   -5.3406556784211352E+00   -2.5691920673332387E+00   -5.2438076759208920E+00
O   -6.0857030777163006E+00   -4.5203999148353962E+00   -3.8239892406082512E+00
C   -7.1037771464875261E+00   -3.8230179000810982E+00   -2.8213716437861689E+00
C   -8.2064356407671539E+00   -4.9645244428125972E+00   -2.6106643679634103E+00
O   -4.0186418695970447E+00   -3.9875076942325989E+00   -1.7510012774575445E+00
C   -3.2748703010664664E+00   -5.2376771443554455E+00   -2.4118541861199625E+00
C   -3.1078353935219485E+00   -6.2455826483681358E+00   -1.1848694227544492E+00
N   -3.6734224255414144E-01    1.4170502872046029E+00   -6.2113778496577314E+00
O    3.8049954991409529E+00    3.1262648461365117E-01   -1.7476352038976204E+00
C    3.2484856036668748E+00    1.1037948395457986E+00   -4.8676950795339707E-01
C    4.0154115767768968E+00    4.5050790954007425E-01    7.6920161504412010E-01
N   -3.9842972735917157E+00    1.8475388689352572E+00   -7.1528151270870843E+00
C   -5.3015550735882275E+00    1.3310787975535243E+00   -7.5549512085368971E+00
N   -5.8135768985095178E+00    1.0164657304579221E+00   -8.8666073886041392E+00
C   -4.7974377889203996E+00    1.1151829728424993E+00   -9.8869605003433172E+00
N   -3.3169412389100050E+00    1.1615673123064723E+00   -9.7875864791053875E+00
C   -2.8517313060773080E+00    1.0441121984866029E+00   -1.1174148476650018E+01
N   -1.5202145768315427E+00    1.2612081752619644E+00   -1.1748119400171069E+01
C   -8.2728903155851374E-01    2.2707891926033184E+00   -1.0981958576050426E+01
N   -1.2347920067472999E+00    2.8170057523766046E+00   -9.6459645436543013E+00
C   -5.2688078390735249E-01    4.0924670308885389E+00   -9.5629754588956892E+00
N   -3.5031215445256725E-01    5.0312334279488313E+00   -8.4906638572006550E+00
C   -9.9987738933315107E-01    4.5739248116306106E+00   -7.2908557680758594E+00
N   -1.9120606373563156E+00    3.4460338381159588E+00   -7.0368160633012469E+00
C   -2.1977263647676435E+00    3.5246827235879183E+00   -5.5720067751065061E+00
N   -3.2365908509418948E+00    2.8529419528910123E+00   -4.8006312920347156E+00
C   -4.1472078755881236E+00    2.1432003015971386E+00   -5.6911252888513015E+00
C   -5.5793233605340475E+00    1.9085668166516192E+00   -5.2510033699148462E+00
C   -6.3032814281818448E+00    1.3998252292366367E+00   -6.4199695611114258E+00
C   -7.7521273447239887E+00    1.3344282061874111E+00   -6.5810927378844033E+00
C   -8.5091689240694475E+00    1.7941199459027284E+00   -5.3658949494577532E+00
C   -7.8073389287037056E+00    2.3172053884876815E+00   -4.1435800077997547E+00
C   -6.3085484058683692E+00    2.4286823218230387E+00   -4.0808350872226464E+00
O   -5.5758103730405510E+00    3.0416714709608872E+00   -2.9420487274260938E+00
C   -5.3228790927825180E+00    1.8538543935393212E+00   -1.8993907979680784E+00
C   -4.0703807150803337E+00    9.6887184993211906E-01   -2.3431134578586850E+00
C   -2.7252814488008719E+00    1.7427628584407391E+00   -2.0008126819164529E+00
C   -6.6106087410181322E+00    9.4193435823879534E-01   -1.7195651802954057E+00
C   -7.7501520802820281E+00    1.7334777014042266E+00   -9.3766679950518306E-01
C   -1.4842169689395206E+00    4.7210642271474397E+00   -4.9511426181243259E+00
C   -7.7804295189733319E-01    5.3659541190758375E+00   -6.0449759117546655E+00
C   -1.2814549090817373E-01    6.6643370868336298E+00   -5.9928983865704311E+00
C   -9.0505216933834384E-02    7.3057766006721261E+00   -4.6299669100829695E+00
C   -8.3821958062104096E-01    6.6561971593973022E+00   -3.5040065323134022E+00
C   -1.6177638104659093E+00    5.3660381684409781E+00   -3.6440515235454605E+00
O    2.2433822812121343E-01    7.1789710178106994E+00   -7.3131772866289948E+00
C    1.5757854656017667E+00    7.9606591951319379E+00   -7.2176840440218317E+00
C    2.7413618926688521E+00    6.9154271399737173E+00   -7.4901193696985837E+00
C    3.0269240947629048E+00    5.9373930141751856E+00   -6.2483522699021306E+00
C    1.4932245636096915E+00    9.0158625061219393E+00   -8.3819589458122064E+00
C    1.8245429586832451E-01    9.9157429273836595E+00   -8.2257374016695159E+00
C    1.7145754709609204E-01    4.4452210358358375E+00   -1.0859464255429884E+01
C    7.0123765152890996E-02    3.2698980188782767E+00   -1.1718768870839396E+01
C    3.2642234650542290E-01    3.4353771558032582E+00   -1.3151036678947721E+01
C    8.8866968232953703E-01    4.7427724759039798E+00   -1.3606815259868156E+01
C    1.0756860261506365E+00    5.8932142405820347E+00   -1.2662058290395334E+01
C    6.5979834053088970E-01    5.7769587274387213E+00   -1.1225667957074849E+01
O    1.3361356188188939E-01    2.3026135079631738E+00   -1.4089502474946647E+01
C    1.2455022228776280E+00    1.2459559808412557E+00   -1.3625305072463805E+01
C    8.9068489908286685E-01   -2.4938245294306185E-02   -1.4472050424801441E+01
C   -4.7039789152519806E-01   -6.8855593752887234E-01   -1.3976956426087366E+01
C    2.6383523674569402E+00    1.8766647788955926E+00   -1.4117479614825811E+01
C    3.4279167325144599E+00    2.4941810402605613E+00   -1.2857945536192874E+01
C   -4.0294579164266047E+00    1.1347767002295861E+00   -1.2148977701969459E+01
C   -5.2250123327510378E+00    1.1831100134885661E+00   -1.1317036716218322E+01
C   -6.5835594461897662E+00    1.4241209015914615E+00   -1.1804829737495492E+01
C   -6.6990632197639872E+00    1.5757709936338011E+00   -1.3301335766987750E+01
C   -5.4602364241872738E+00    1.5724998062376923E+00   -1.4141836115710937E+01
C   -4.0617700619667199E+00    1.3860594352892270E+00   -1.3588744824203468E+01
O   -7.5739344895529133E+00    1.5146888793693905E+00   -1.0742500533996518E+01
C   -8.9628373223577338E+00    1.0202550340508629E+00   -1.1284265047810532E+01
C   -9.3221189064316139E+00   -2.3052807482166565E-01   -1.0383014283795369E+01
C   -8.2458660542434679E+00   -1.4108162232474426E+00   -1.0596543790972778E+01
C   -9.9721963786296222E+00    2.2013365856814668E+00   -1.1018238318492271E+01
C   -9.4639136025839896E+00    3.5250015625606661E+00   -1.1786868108970012E+01
H    8.8586679217570978E+00    1.2239783962209412E+00   -7.6454343563183711E+00
H    9.1582744615704161E+00    2.6483499298484464E-01   -9.4546867885801120E+00
H    8.4263297129969246E+00    2.1514018229809477E+00   -9.3939266387679048E+00
H    6.7290314983365143E+00   -6.7460652158301349E-01   -8.7219340616237240E+00
H    6.2626698459687562E+00    1.0289382766825679E+00   -7.7338151080277138E+00
H    4.1953199869249751E+00    2.6243246394449034E+00   -8.4362646186323182E+00
H    2.5941340256866727E+00   -1.9240313622386724E+00   -1.1277682978224739E+01
H    4.3727454828143744E+00   -1.1326615538032800E+00   -1.3049060923544607E+01
H    5.8016113779801932E+00    2.3815935579868455E-01   -1.2642173129361971E+01
H    7.2094448761924284E+00   -2.4653496628963372E+00   -1.2252535234041508E+01
H    6.1065471585539246E+00   -2.8747866586286426E+00   -1.3866310186071912E+01
H    7.4449619310927639E+00   -1.3279478166947443E+00   -1.3903869299434762E+01
H    3.7361250447469310E+00    3.0682801822595738E+00   -5.9071576445183860E+00
H    5.7875647844724067E+00    2.3694657523937906E-01   -3.8920709970343252E+00
H    5.6798758764581523E+00    1.6143546033556126E+00   -5.3939516228264122E+00
H    7.4169974676748200E+00    2.0128569758059935E+00   -2.5262156180825519E+00
H    8.2943562240987205E+00    1.2566941870186683E+00   -4.1971757456206289E+00
H    7.5239003583167525E+00    3.1642726858006558E+00   -4.1584657336126929E+00
H    8.2891993998206159E-01   -1.9741335092041298E-01   -2.3748660388839746E+00
H   -2.7418102575296194E-01   -3.5558844958409845E+00   -1.1880609682319429E+01
H   -3.0999891374552652E-01   -6.3016575552524925E+00   -1.0837899685625789E+01
H   -2.1622910431774121E+00   -7.0909444261478303E+00   -1.0475415165292413E+01
H   -6.3122601785612842E-01   -9.1202319069611271E+00   -1.1500328010552371E+01
H   -1.8858770918724022E+00   -8.4112006263641224E+00   -1.2941133285328505E+01
H    3.9484779202084999E-02   -7.8555827617434790E+00   -1.2969688336006527E+01
H   -5.2464740306744018E+00   -3.7771316045860654E+00   -9.2943957776694877E+00
H   -5.8380713004272131E+00   -4.6992548545914703E+00   -1.1985634363023937E+01
H   -4.4522215984065499E+00   -5.6681928970060973E+00   -1.3124234053765349E+01
H   -6.5309219105604566E+00   -7.3734983449887572E+00   -1.1120077027710000E+01
H   -7.2989499337389603E+00   -6.7350516571292758E+00   -1.2883547712666942E+01
H   -5.6763837849997190E+00   -7.9842496978949731E+00   -1.2830228774894389E+01
H   -2.0420330106472586E+00   -1.9094845373691058E+00   -2.4557828459414623E+00
H   -6.1682626449804472E+00   -2.7478128589943389E+00   -6.1440255154440644E+00
H   -6.4686226626268271E+00   -3.4858858495469831E+00   -1.7966479493327501E+00
H   -7.5500717786452611E+00   -2.7738695976490986E+00   -3.3577281864385142E+00
H   -8.3773725854862722E+00   -5.2012300290903442E+00   -1.4164714397227316E+00
H   -9.2562775811997469E+00   -4.6916398270949156E+00   -3.1946159228797857E+00
H   -7.7145482047656087E+00   -5.9655106954453574E+00   -3.1564172532794847E+00
H   -3.9882121124983203E+00   -5.6679793032626948E+00   -3.3402654020996581E+00
H   -2.1753561451904866E+00   -4.8558249543963248E+00   -2.8827636097826521E+00
H   -3.1374192611512832E+00   -7.4111705600723052E+00   -1.5793316598418179E+00
H   -2.0705383166503792E+00   -6.0038854531876673E+00   -5.5904572773247496E-01
H   -4.0721486626598278E+00   -6.0357880804638979E+00   -4.3409339562094512E-01
H    3.5385296684383576E+00    2.3015529624814013E+00   -7.0834607816360329E-01
H    2.0008251243732373E+00    9.6683018127989473E-01   -4.4687338236492319E-01
H    3.9633231174436432E+00   -7.8327934910415442E-01    5.7222258043567287E-01
H    5.2182680371696799E+00    7.3099716230868916E-01    5.9552201604178134E-01
H    3.5618052409673875E+00    8.2005145226294862E-01    1.8968901614857165E+00
H   -8.1258644636111459E+00    9.7949818458801541E-01   -7.7179149893621339E+00
H   -9.7377286842946109E+00    1.7887302620462799E+00   -5.4072564109480590E+00
H   -8.4207027004677091E+00    2.7159774981784657E+00   -3.1690450347417674E+00
H   -5.0814577668840784E+00    2.4775132573465446E+00   -8.4756735945692929E-01
H   -4.1418015119686027E+00   -8.0601586597219860E-02   -1.7013759894461034E+00
H   -4.1378056036225681E+00    6.4821450426140570E-01   -3.5189732481600071E+00
H   -2.6108904735005272E+00    1.8576346275046924E+00   -7.7369660959485376E-01
H   -1.7475700512574288E+00    1.1691094878102353E+00   -2.4841983856500658E+00
H   -2.8088386243664685E+00    2.8635885890784820E+00   -2.4985568377970768E+00
H   -6.9986328324778926E+00    4.9821183970161376E-01   -2.7927570106987987E+00
H   -6.2096263276455685E+00   -1.0197282552726087E-02   -1.0588240751119564E+00
H   -7.5625028903944997E+00    1.6400685104176118E+00    2.7827150466462414E-01
H   -7.7228123668306168E+00    2.9356130143914791E+00   -1.2108910029314863E+00
H   -8.8691344394308675E+00    1.2764407113109255E+00   -1.1755059200253741E+00
H    4.6024850533029538E-01    8.3817532000249244E+00   -4.4602169477675213E+00
H   -8.3518538460707126E-01    7.2247930659935173E+00   -2.4171753793528405E+00
H   -2.3633469989013181E+00    4.8114830882019284E+00   -2.8320808877186772E+00
H    1.6299813721107967E+00    8.4498000270822686E+00   -6.0913905595156406E+00
H    2.4528155574744521E+00    6.2802568859450112E+00   -8.5060343933520528E+00
H    3.7233623329026133E+00    7.6137020702287472E+00   -7.7620405076686323E+00
H    2.8940372317311502E+00    4.7549565893334469E+00   -6.5661415362031121E+00
H    4.1648010356108758E+00    6.1384935660527526E+00   -5.8069901428206405E+00
H    2.2309548144321072E+00    6.1293911728942776E+00   -5.3230434831686235E+00
H    2.5256619305848709E+00    9.6818453513695832E+00   -8.3483835027830544E+00
H    1.4837189156234851E+00    8.3931607045592465E+00   -9.4462526959333850E+00
H   -7.9226905873908182E-02    1.0099708173866825E+01   -7.0311130372432507E+00
H    3.4314450303296107E-01    1.1007744965485344E+01   -8.7716506764904612E+00
H   -8.0552166446825979E-01    9.3525622384508527E+00   -8.7149300382429598E+00
H    1.2245979889410223E+00    4.8057763687102879E+00   -1.4778294613609930E+01
H    1.5646834572148569E+00    6.9416736641949033E+00   -1.3072185331215687E+01
H    6.4284150785579164E-01    6.6294461655670007E+00   -1.0320013966401847E+01
H    1.1805992348245895E+00    1.0762543181521256E+00   -1.2385421064081045E+01
H    8.0697934245675074E-01    4.1243691096847096E-01   -1.5626204735578638E+01
H    1.8586678379076964E+00   -7.7295531087059022E-01   -1.4423307975132946E+01
H   -5.3685728866483784E-01   -6.8538511596513774E-01   -1.2743251234285969E+01
H   -1.4342540849129251E+00   -1.9533827376210990E-02   -1.4366239493187621E+01
H   -5.6500359697953095E-01   -1.8307877232733192E+00   -1.4427436690855146E+01
H    3.2667369480395552E+00    1.0146478032415045E+00   -1.4806128255182246E+01
H    2.3667578274623495E+00    2.7789235309863827E+00   -1.4907527436053970E+01
H    3.8739852325067301E+00    1.6278690793603687E+00   -1.2095829424305020E+01
H    4.3550407619890743E+00    3.2025992167876751E+00   -1.3268547799389546E+01
H    2.6983075806311438E+00    3.2253443237002819E+00   -1.2172408619757272E+01
H   -7.7862547819839554E+00    1.7384283917876975E+00   -1.3826517650350182E+01
H   -5.5942272537320168E+00    1.7287012665993209E+00   -1.5350562935547186E+01
H   -2.9677385234794178E+00    1.4683617505086211E+00   -1.4158565148764426E+01
H   -8.7926155694511525E+00    7.0102111973285175E-01   -1.2457474499884553E+01
H   -9.3498282322328183E+00    1.6049830465043302E-01   -9.2181371938255250E+00
H   -1.0485812469388861E+01   -5.5105256913899026E-01   -1.0667415146245018E+01
H   -7.8511123950851180E+00   -1.8530275129285876E+00   -9.5145652840396533E+00
H   -8.7147653864563370E+00   -2.3497515728316443E+00   -1.1248942930139410E+01
H   -7.2359919343752752E+00   -9.9415051310921343E-01   -1.1184181881590554E+01
H   -1.1088796912605012E+01    1.8060789823752850E+00   -1.1362844908128382E+01
H   -1.0027743040891382E+01    2.3657815609528829E+00   -9.7970415366711254E+00
H   -9.1440040563045670E+00    4.4133449760631711E+00   -1.0990375377633926E+01
H   -8.4474707299192122E+00    3.3181462576888210E+00   -1.2459225905979538E+01
H   -1.0334209810868412E+01    3.9788321115284591E+00   -1.2534583177421293E+01
     &END COORD
     &KIND Dy
       BASIS_SET SZV-MOLOPT-SR-GTH
       POTENTIAL GTH-PBE-q20
       &POTENTIAL
 4 6 0 10
  0.5102968700000000E+00 2  0.1767093508000000E+02 -0.8678777000000000E+00
 4
  0.4421234800000000E+00 2 -0.2715733840000000E+01  0.4017884260000000E+01
 -0.5187066270000000E+01
  0.4501723000000000E+00 2 -0.2773475350000000E+01  0.2201152450000000E+01
 -0.2604438700000000E+01
  0.4711651400000000E+00 1 -0.7522756100000000E+00
  0.2618074100000000E+00 1 -0.2424856414000000E+02
         # Potential name:  GTH-PBE-Q20  for symbol:  DY
         # Potential read from the potential filename: ../POTENTIAL
       &END POTENTIAL
     &END KIND
     &KIND Tb
       BASIS_SET SZV-MOLOPT-SR-GTH
       POTENTIAL GTH-PBE-q19
     &END KIND
     &KIND Ho
       BASIS_SET SZV-MOLOPT-SR-GTH
       POTENTIAL GTH-PBE-q21
     &END KIND
     &KIND Gd
       BASIS_SET SZV-MOLOPT-SR-GTH
       POTENTIAL GTH-PBE-q18
     &END KIND
     &KIND Lu
       BASIS_SET SZV-MOLOPT-SR-GTH
       POTENTIAL GTH-PBE-q25
     &END KIND
     &KIND Pm
       BASIS_SET SZV-MOLOPT-SR-GTH
       POTENTIAL GTH-PBE-q15
     &END KIND
     &KIND Tm
       BASIS_SET SZV-MOLOPT-SR-GTH
       POTENTIAL GTH-PBE-q23
     &END KIND
     &KIND F
       BASIS_SET SZV-GTH-PADE
       POTENTIAL GTH-PBE-q7
     &END KIND
     &KIND S
       BASIS_SET SZV-GTH-PADE
       POTENTIAL GTH-PBE-q6
     &END KIND
     &KIND Na
       BASIS_SET SZV-GTH-PADE
       POTENTIAL GTH-PBE-q9
     &END KIND
     &KIND B
       BASIS_SET SZV-GTH-PADE
       POTENTIAL GTH-PBE-q3
     &END KIND
     &KIND Cl
       BASIS_SET SZV-GTH-PADE
       POTENTIAL GTH-PBE-q7
     &END KIND
     &KIND H
       BASIS_SET SZV-GTH-PADE
       POTENTIAL GTH-PBE-q1
       &POTENTIAL
 1
  0.2000000000000000E+00 2 -0.4178900440000000E+01  0.7244633100000000E+00
 0
         # Potential name:  GTH-PBE-Q1  for symbol:  H
         # Potential read from the potential filename: ../POTENTIAL
       &END POTENTIAL
     &END KIND
     &KIND N
       BASIS_SET SZV-GTH-PADE
       POTENTIAL GTH-PBE-q5
       &POTENTIAL
 2 3
  0.2837905100000000E+00 2 -0.1241522559000000E+02  0.1868095920000000E+01
 2
  0.2554050000000000E+00 1  0.1363026257000000E+02
  0.2454945300000000E+00 0
         # Potential name:  GTH-PBE-Q5  for symbol:  N
         # Potential read from the potential filename: ../POTENTIAL
       &END POTENTIAL
     &END KIND
     &KIND O
       BASIS_SET SZV-GTH-PADE
       POTENTIAL GTH-PBE-q6
       &POTENTIAL
 2 4
  0.2445543000000000E+00 2 -0.1666721480000000E+02  0.2487311320000000E+01
 2
  0.2209559200000000E+00 1  0.1833745811000000E+02
  0.2113324700000000E+00 0
         # Potential name:  GTH-PBE-Q6  for symbol:  O
         # Potential read from the potential filename: ../POTENTIAL
       &END POTENTIAL
     &END KIND
     &KIND C
       BASIS_SET SZV-GTH-PADE
       POTENTIAL GTH-PBE-q4
       &POTENTIAL
 2 2
  0.3384712400000000E+00 2 -0.8803673979999999E+01  0.1339210850000000E+01
 2
  0.3025757500000000E+00 1  0.9622486650000001E+01
  0.2915069400000000E+00 0
         # Potential name:  GTH-PBE-Q4  for symbol:  C
         # Potential read from the potential filename: ../POTENTIAL
       &END POTENTIAL
     &END KIND
     &TOPOLOGY
       COORD_FILE_NAME ../../Dy_L9_L2.xyz
       COORD_FILE_FORMAT  XYZ
       NUMBER_OF_ATOMS  233
       MULTIPLE_UNIT_CELL  1 1 1
     &END TOPOLOGY
   &END SUBSYS
 &END FORCE_EVAL
