 # Version information for this restart file 
 # current date 2023-03-25 18:58:14.246
 # current working dir /mnt/scratch2/users/40265864/MSc_ML_MM/ln_replacements/xyz/Dy_L9_L2/geometry_optimisation/run-6
 # Program compiled at                              Mon 24 Oct 18:14:20 BST 2022
 # Program compiled on                          login1.pri.kelvin2.alces.network
 # Program compiled for                                                    local
 # Source code revision number                                         svn:17462
 &GLOBAL
   PRINT_LEVEL  LOW
   PROJECT_NAME molecule_name
   RUN_TYPE  GEO_OPT
 &END GLOBAL
 &MOTION
   &GEO_OPT
     OPTIMIZER  BFGS
     MAX_DR     5.0000000000000000E-01
     MAX_FORCE     5.0000000000000000E-01
     RMS_DR     5.0000000000000003E-02
     RMS_FORCE     5.0000000000000003E-02
     STEP_START_VAL  2
   &END GEO_OPT
 &END MOTION
 &FORCE_EVAL
   METHOD  QS
   &DFT
     BASIS_SET_FILE_NAME ../BASIS_MOLOPT_UCL
     BASIS_SET_FILE_NAME BASIS_SET
     POTENTIAL_FILE_NAME ../POTENTIAL
     UKS  T
     MULTIPLICITY  6
     CHARGE  3
     &SCF
       MAX_SCF  50
       EPS_SCF     5.0000000000000002E-05
       SCF_GUESS  RESTART
       &OT  T
         MINIMIZER  DIIS
         PRECONDITIONER  FULL_KINETIC
       &END OT
       &OUTER_SCF  T
         EPS_SCF     5.0000000000000002E-05
         MAX_SCF  20
       &END OUTER_SCF
     &END SCF
     &MGRID
       NGRIDS  2
       CUTOFF     4.0000000000000000E+02
       REL_CUTOFF     5.0000000000000000E+01
     &END MGRID
     &XC
       DENSITY_CUTOFF     1.0000000000000000E-10
       GRADIENT_CUTOFF     1.0000000000000000E-10
       TAU_CUTOFF     1.0000000000000000E-10
       &XC_FUNCTIONAL  NO_SHORTCUT
         &PBE  T
         &END PBE
       &END XC_FUNCTIONAL
     &END XC
   &END DFT
   &SUBSYS
     &CELL
       A     2.1000000000000000E+01    0.0000000000000000E+00    0.0000000000000000E+00
       B     0.0000000000000000E+00    2.1000000000000000E+01    0.0000000000000000E+00
       C     0.0000000000000000E+00    0.0000000000000000E+00    1.8000000000000000E+01
       PERIODIC  NONE
       MULTIPLE_UNIT_CELL  1 1 1
     &END CELL
     &COORD
C    8.3740542277958987E+00    1.0789610768384628E+00   -8.7978223568753418E+00
C    6.8636227813403234E+00    5.9188094835908300E-01   -8.7010506400427996E+00
O    6.1950747392771106E+00    1.1554131566951211E+00   -9.9659377146394998E+00
C    4.7949796010240666E+00    7.7335004817962827E-01   -9.9029033490395850E+00
C    3.8819053404979109E+00    1.5946732569963578E+00   -9.0681869415451803E+00
C    2.4988246092853412E+00    1.2196238003745248E+00   -9.3214393797418378E+00
C    2.1360806875476750E+00    5.2460405022994065E-03   -1.0035589029736904E+01
C    2.9962857770641507E+00   -9.1489075486122140E-01   -1.0755753234075760E+01
C    4.4109558976986838E+00   -5.4873501776028399E-01   -1.0535144123699858E+01
O    5.4800377894300691E+00   -1.3727873922703895E+00   -1.1081067008970624E+01
C    5.5127431458800222E+00   -9.9702336547860615E-01   -1.2576059881262955E+01
C    6.6140300023711065E+00   -1.9648657000711427E+00   -1.3172675371370227E+01
C    7.0231685229661156E-01   -2.3429511048025559E-01   -9.7376942417754151E+00
N    1.2263902662041418E-01   -1.3130965216390158E+00   -1.0448797315048372E+01
C   -1.2113477268798511E+00   -1.4512173586354320E+00   -9.9806023013135192E+00
N   -1.9789827863184997E+00   -7.6569292928693178E-01   -8.9750352600324259E+00
Dy   -1.8146349621560049E+00    1.1980359292299936E+00   -8.0357007492835262E+00
N    1.6655836919639760E-01    7.5847203614332515E-01   -8.8282568491150837E+00
C    1.2527541652710592E+00    1.6693115691581235E+00   -8.6187013226763032E+00
N    1.4720767790555829E+00    2.6381453108471788E+00   -7.5940396216990678E+00
C    8.0796022000690482E-01    2.1418522404318492E+00   -6.4309459577945436E+00
C    1.7266105961448952E+00    1.9791290524646943E+00   -5.2506635815646119E+00
C    3.1505700171298678E+00    2.2841645491299727E+00   -5.1330098004107230E+00
C    3.6434361971157783E+00    1.8521130291267494E+00   -3.7943434864812140E+00
O    4.9571788015719713E+00    2.2637821914644283E+00   -3.3177555013303608E+00
C    5.9561438141197929E+00    1.4623119784241747E+00   -4.1822849667110455E+00
C    7.3648310003383539E+00    2.0155658982939819E+00   -3.7444850065838415E+00
C    2.9418618287963341E+00    8.4533293569294854E-01   -2.9075135262162339E+00
C    1.4939688417151888E+00    5.4863889530363519E-01   -3.0518822636896221E+00
C    1.0187869411935131E+00    1.1193118925423411E+00   -4.3070232868420470E+00
C   -2.8483715642203666E-01    7.9565547188780650E-01   -4.9479547792430729E+00
N   -1.1285303557929747E+00   -6.2895927227533302E-02   -4.2023476829703856E+00
C   -2.2003395026013433E+00   -4.4588485590970683E-01   -5.0538590985094682E+00
N   -2.4548575463490367E+00   -2.6563055692035537E-01   -6.4577127481459806E+00
C   -3.6918470518943134E+00   -9.9954078802203283E-01   -6.6776405651827648E+00
N   -4.2676454292397343E+00   -1.5214956480549839E+00   -7.8883836397034033E+00
C   -3.2231362137678201E+00   -1.5216290432939257E+00   -8.8838058923386605E+00
C   -3.2446881832272312E+00   -2.6424610675065607E+00   -9.8648762734122446E+00
C   -1.9432354983044917E+00   -2.6289199669213881E+00   -1.0513923412520441E+01
C   -1.3687156840758903E+00   -3.6450288532977035E+00   -1.1369379861793627E+01
C   -2.3395349976224740E+00   -4.7462916271388487E+00   -1.1555180579942293E+01
O   -1.9069012244208070E+00   -5.8690992995643638E+00   -1.2375626698143702E+01
C   -1.2878706598441150E+00   -6.8662642556434950E+00   -1.1361941025813271E+01
C   -9.2100987291542880E-01   -8.1110394290250873E+00   -1.2252677198172902E+01
C   -3.6083597819858375E+00   -4.8759001544426051E+00   -1.0708977017749168E+01
C   -4.1774358061463612E+00   -3.7518485326470383E+00   -9.9186312649112462E+00
O   -4.4259912574273379E+00   -6.0645736228210918E+00   -1.0884185367927518E+01
C   -5.2734290310221557E+00   -5.7815343658120346E+00   -1.2149941758360718E+01
C   -6.2317115572123774E+00   -7.0323780163867662E+00   -1.2246354740719120E+01
C   -4.2226232650526105E+00   -1.5690617748003994E+00   -5.4098646160636168E+00
C   -3.1807894100129288E+00   -1.3658515020197437E+00   -4.4206913144412132E+00
C   -2.9756581207586854E+00   -2.0853061322422279E+00   -3.1797968656419031E+00
C   -4.0666022752146240E+00   -3.0607331937493081E+00   -2.9622635953734737E+00
C   -5.0992303719640795E+00   -3.3681405725203817E+00   -4.0546064793867629E+00
C   -5.2808434721833288E+00   -2.5505684639845518E+00   -5.2781896734280132E+00
O   -6.0808185685543821E+00   -4.4057389931085806E+00   -3.8186044426522958E+00
C   -7.1100915247089498E+00   -3.7954457113497271E+00   -2.8447415511432039E+00
C   -8.1624242761695545E+00   -4.9629434952562193E+00   -2.6524530617916482E+00
O   -3.9756749391196147E+00   -3.9706287019440367E+00   -1.8338933178410104E+00
C   -3.2532181586900708E+00   -5.2211190846649993E+00   -2.4027691466360142E+00
C   -3.1192863619519025E+00   -6.2015810446937030E+00   -1.1714695456425075E+00
N   -4.1601492664259171E-01    1.4049888274382554E+00   -6.2615534142157045E+00
O    3.7331895615561033E+00    3.2209031086613882E-01   -1.8003890228236772E+00
C    3.2635870115050256E+00    1.0665162456076089E+00   -5.3066292284219174E-01
C    4.0712845772813884E+00    4.0110399384596579E-01    6.5696663057951155E-01
N   -3.9384503367970423E+00    1.8832044236576313E+00   -7.1790242715344048E+00
C   -5.2268672449185569E+00    1.3769323024113851E+00   -7.5784253790728604E+00
N   -5.7918467230221120E+00    1.0597630540739122E+00   -8.8414806480871704E+00
C   -4.7717679603777379E+00    1.1711118607720119E+00   -9.8220209816661814E+00
N   -3.3220280275199441E+00    1.1967688680282502E+00   -9.7334014541211005E+00
C   -2.8543119795308538E+00    1.1452523640620178E+00   -1.1091150032119618E+01
N   -1.5739519560436928E+00    1.3146926759143509E+00   -1.1703190106819374E+01
C   -8.9058212445269069E-01    2.2732775232369149E+00   -1.0905364523292814E+01
N   -1.2201745521373595E+00    2.7679984489881888E+00   -9.5823253425300567E+00
C   -6.3453683584610265E-01    4.0768869576811211E+00   -9.5491611732384705E+00
N   -3.6073396329381191E-01    4.9826298704866288E+00   -8.4939580085773070E+00
C   -1.0163744017984471E+00    4.5158640754475954E+00   -7.3295494247627593E+00
N   -1.8569087279553911E+00    3.3660635871582358E+00   -7.0691826423800048E+00
C   -2.2291887707822879E+00    3.5511201957429064E+00   -5.6718047751048459E+00
N   -3.2661782522417528E+00    2.9579121353490434E+00   -4.8657246062992900E+00
C   -4.1215006392756131E+00    2.2538379819706900E+00   -5.7773752942169212E+00
C   -5.5245760618584878E+00    2.0295694478183095E+00   -5.3370408297341365E+00
C   -6.2264789616763334E+00    1.5050451982769788E+00   -6.4895511181136856E+00
C   -7.6684369769374401E+00    1.3916203793992281E+00   -6.6512929972386576E+00
C   -8.4034571802608777E+00    1.8288719319358757E+00   -5.4414224720478215E+00
C   -7.6972111412773065E+00    2.3092973790167477E+00   -4.2235185547878062E+00
C   -6.2172568810831637E+00    2.4447710961458675E+00   -4.1203113197539309E+00
O   -5.4771087577920445E+00    3.0069268235876825E+00   -2.9981406088531317E+00
C   -5.3405236825088886E+00    1.8618477103685007E+00   -1.9626053499950078E+00
C   -4.0596887568247988E+00    9.8608291270294934E-01   -2.3085405065637374E+00
C   -2.7303484225893753E+00    1.7666203977637984E+00   -1.9726447029061873E+00
C   -6.6187813568230816E+00    9.6190879347047564E-01   -1.7053234658981240E+00
C   -7.7486356166838624E+00    1.7321724670356489E+00   -9.1622052438702339E-01
C   -1.5433928381472519E+00    4.7197685322698284E+00   -5.0421781600108746E+00
C   -8.1708616983219506E-01    5.3318862927260184E+00   -6.1198990643152777E+00
C   -1.8372125332556821E-01    6.6328782149828713E+00   -6.0914596230103353E+00
C   -9.5815760731646563E-02    7.2290718456909095E+00   -4.7230999875857451E+00
C   -8.6535579913949168E-01    6.5891926657372251E+00   -3.6166637034678271E+00
C   -1.6801170694851033E+00    5.3436310811760448E+00   -3.7382123065225299E+00
O    2.6698663087996277E-01    7.1523992359653485E+00   -7.3590129077191460E+00
C    1.5708280357483722E+00    7.9402322567187795E+00   -7.2640910742852762E+00
C    2.7392951638619740E+00    6.8913446415084350E+00   -7.4604369260558343E+00
C    3.0340859988179818E+00    5.9371393216946915E+00   -6.2283606021480580E+00
C    1.4520321997672596E+00    9.0251361626829993E+00   -8.3754775831043098E+00
C    1.4079362949601365E-01    9.8923128697988343E+00   -8.2037279119940738E+00
C    1.8605263620017177E-02    4.4499264320779481E+00   -1.0833029260264356E+01
C   -6.6029446074690301E-02    3.2605321668361937E+00   -1.1667242379535242E+01
C    2.0439909697168654E-01    3.4076531484753416E+00   -1.3107756177192812E+01
C    8.3747687932510939E-01    4.6837422685100005E+00   -1.3509764492530095E+01
C    1.0154100074762413E+00    5.8319347234160199E+00   -1.2584115347152531E+01
C    5.8051382655942663E-01    5.7497317369352281E+00   -1.1169812178580964E+01
O    5.4441063008694071E-02    2.2448698449549815E+00   -1.3966906077831110E+01
C    1.2067297788333979E+00    1.2741555195839958E+00   -1.3600709806955011E+01
C    8.6166106397672659E-01    1.4332557497592303E-02   -1.4462181594633474E+01
C   -4.9108271134511705E-01   -6.3806815065626821E-01   -1.3971969221001787E+01
C    2.6024307033166312E+00    1.9201749613374621E+00   -1.4037667302115919E+01
C    3.4358632297218383E+00    2.5257065051128014E+00   -1.2831641720529900E+01
C   -3.9989547853100635E+00    1.2157397021271965E+00   -1.2060256567061401E+01
C   -5.1886032648847218E+00    1.2730527549446355E+00   -1.1239986819852509E+01
C   -6.5470588833803820E+00    1.4729178049609806E+00   -1.1724438819818429E+01
C   -6.6788642139136485E+00    1.5431564759915353E+00   -1.3216400761548073E+01
C   -5.4353190450332391E+00    1.5763682036950430E+00   -1.4032395803133317E+01
C   -4.0445381209147246E+00    1.4529663346615875E+00   -1.3496829558733774E+01
O   -7.5706613919126537E+00    1.4764694714755839E+00   -1.0710817276355209E+01
C   -8.9347560705139486E+00    1.0228927781419503E+00   -1.1241077476305581E+01
C   -9.2688879373970661E+00   -2.6309914351603281E-01   -1.0402457669812247E+01
C   -8.1975753772539051E+00   -1.4166308278814426E+00   -1.0614690370191949E+01
C   -9.9102486896166955E+00    2.2270627266065004E+00   -1.1048233007113073E+01
C   -9.4195783927415810E+00    3.5383033279570912E+00   -1.1799446143424346E+01
H    8.7431055719595729E+00    1.2223584889410604E+00   -7.6414107456523634E+00
H    9.0054147073589750E+00    2.3995447121343763E-01   -9.4253894714343343E+00
H    8.3177556922794178E+00    2.1511387124562518E+00   -9.3936240336243078E+00
H    6.7143249236405165E+00   -6.4126212038826313E-01   -8.7206301348623931E+00
H    6.2438476929715661E+00    9.9121461434776725E-01   -7.7014629154182215E+00
H    4.1319031257222880E+00    2.5893512351891621E+00   -8.4213725666381354E+00
H    2.5638399296165364E+00   -1.9185419683508143E+00   -1.1306576470278621E+01
H    4.3947872939535877E+00   -1.1292612008668763E+00   -1.3095624849440560E+01
H    5.7935174878421503E+00    2.0778470377547220E-01   -1.2642257099605448E+01
H    7.1597929046023250E+00   -2.4422785787687409E+00   -1.2182435934624310E+01
H    6.0455237718292354E+00   -2.8296039827678574E+00   -1.3813625450503656E+01
H    7.3769531796802879E+00   -1.2794883731690163E+00   -1.3827795451743402E+01
H    3.6817705494072270E+00    3.0252371124273063E+00   -5.9298602213585330E+00
H    5.7783478260965211E+00    2.6939325802305636E-01   -3.8956495017710790E+00
H    5.7233318837554670E+00    1.5811351093079069E+00   -5.3943537408970892E+00
H    7.3358057074815264E+00    2.0026375443729085E+00   -2.5197902410194386E+00
H    8.1929878798672444E+00    1.2424620609255179E+00   -4.1982896996488952E+00
H    7.4421291220003800E+00    3.1551503263113672E+00   -4.1754582280694965E+00
H    8.0204056902752086E-01   -1.8403516256447217E-01   -2.3587276273872511E+00
H   -2.5406380924561039E-01   -3.5450052908093670E+00   -1.1859678381627232E+01
H   -2.9960823579386409E-01   -6.3248408792599440E+00   -1.0837333638789518E+01
H   -2.1039389895583325E+00   -7.0942886764932220E+00   -1.0458583770769364E+01
H   -6.7233884803156330E-01   -9.0201432310240115E+00   -1.1476936493808036E+01
H   -1.9203942896570638E+00   -8.3238980823169655E+00   -1.2925909984177414E+01
H    2.9777550481838284E-02   -7.7762856673576577E+00   -1.2943364014248600E+01
H   -5.2236371659635381E+00   -3.7020742247574816E+00   -9.2947009493039765E+00
H   -5.8709823486651684E+00   -4.6981438260448165E+00   -1.2060956054498755E+01
H   -4.4742603256388893E+00   -5.6772970305665016E+00   -1.3093191321434274E+01
H   -6.4714942793225836E+00   -7.3321882795345354E+00   -1.1081023230706128E+01
H   -7.2343895722599916E+00   -6.6711137978618007E+00   -1.2838586273751741E+01
H   -5.6119800908728301E+00   -7.9129876751279982E+00   -1.2816462151693059E+01
H   -1.9917521775424727E+00   -1.9153239956272845E+00   -2.4665493875376643E+00
H   -6.1362178223181827E+00   -2.6575130699215905E+00   -6.1367125082226499E+00
H   -6.4920078889384953E+00   -3.4777941762945179E+00   -1.8220645944606513E+00
H   -7.6001063290336806E+00   -2.7577764906630144E+00   -3.3157089780144955E+00
H   -8.2880039630919597E+00   -5.1431756834078595E+00   -1.4560564567002190E+00
H   -9.1875627381046066E+00   -4.6396944065186823E+00   -3.2240608897995036E+00
H   -7.6391715372614950E+00   -5.9277564309367339E+00   -3.2019169995159573E+00
H   -3.9433844629455912E+00   -5.6577666040471826E+00   -3.3296790940813605E+00
H   -2.1565193760733901E+00   -4.8941089440637136E+00   -2.8788202383192982E+00
H   -3.1625369016606375E+00   -7.3287899530112099E+00   -1.6376100148338777E+00
H   -2.0654302699917824E+00   -5.9521860888485945E+00   -6.1186068712497954E-01
H   -4.0891058276754446E+00   -5.9673274686409608E+00   -4.6178089105829717E-01
H    3.5492230631477715E+00    2.2550563255440843E+00   -7.4206314769105275E-01
H    2.0308987569759904E+00    1.0004735248523393E+00   -4.1185292635212717E-01
H    3.9634786099024684E+00   -8.0466281075653434E-01    4.3661356184781625E-01
H    5.2322565644321797E+00    7.5032206412860591E-01    4.6137793127314380E-01
H    3.5668784839529444E+00    8.0111492468268564E-01    1.7103229854818416E+00
H   -8.0677916669999625E+00    9.4747438522355198E-01   -7.7268719787145113E+00
H   -9.6067363286470009E+00    1.7501319584632018E+00   -5.4622436713661839E+00
H   -8.3008264361213797E+00    2.7378496473600635E+00   -3.2706534568315870E+00
H   -5.1405468550251507E+00    2.5093369314013234E+00   -9.4035634676816593E-01
H   -4.1520152417673462E+00   -3.8764839842735661E-02   -1.6479959152802666E+00
H   -4.0889867538168909E+00    6.3906980783718625E-01   -3.4772840666716940E+00
H   -2.6426256406585340E+00    1.8295321679333092E+00   -7.5576849859784900E-01
H   -1.8040438391102918E+00    1.1431133775184164E+00   -2.4621147983389178E+00
H   -2.8252969239472496E+00    2.8732266072867523E+00   -2.4707750302573963E+00
H   -7.0477071441820316E+00    4.7105930745657110E-01   -2.7377310246375921E+00
H   -6.2036784786389996E+00    1.9585119460769802E-02   -1.0438349577559560E+00
H   -7.5482794250755836E+00    1.5940882952909503E+00    2.7878439924929949E-01
H   -7.6925446596108120E+00    2.9106023010992814E+00   -1.2066248206423809E+00
H   -8.8300935821585149E+00    1.2441724640686092E+00   -1.1854858957303445E+00
H    4.3407452998757767E-01    8.2967361560532087E+00   -4.5427026022014863E+00
H   -8.5598129782850441E-01    7.1023301507224987E+00   -2.5214849461163626E+00
H   -2.3714925246587808E+00    4.7475700484459242E+00   -2.9242820885544334E+00
H    1.6032150285181372E+00    8.3772728288428340E+00   -6.1183235256870354E+00
H    2.4446754995796125E+00    6.2700791723073559E+00   -8.4698869226346680E+00
H    3.6720126056308247E+00    7.6348991715959018E+00   -7.7233700271392003E+00
H    2.9321726652191509E+00    4.7838351221000641E+00   -6.5987123184107821E+00
H    4.1741073135957611E+00    6.1770721610357722E+00   -5.8628893426314690E+00
H    2.2486652762123822E+00    6.1514763777205523E+00   -5.3246900015318301E+00
H    2.4939442666642968E+00    9.6405866724572515E+00   -8.2812123092909538E+00
H    1.4179728615749720E+00    8.3514761860653444E+00   -9.3939886486539930E+00
H   -8.4966960303329592E-02    1.0084467996567327E+01   -7.0213613349676391E+00
H    4.1027478628289588E-01    1.0941623290034972E+01   -8.7611141528380116E+00
H   -8.0646833272792418E-01    9.3453361839559932E+00   -8.7406584591424021E+00
H    1.1839288222929629E+00    4.7295941900021150E+00   -1.4664832951273038E+01
H    1.5042845911534686E+00    6.8591639472497894E+00   -1.2988105857490138E+01
H    6.5582561028430053E-01    6.6012714064535496E+00   -1.0287186519050746E+01
H    1.2399504933991428E+00    1.0731193009861577E+00   -1.2388216456266072E+01
H    7.5284747298855781E-01    4.8251564829953325E-01   -1.5590109451956598E+01
H    1.8312352727092245E+00   -7.0973843378793167E-01   -1.4398178625582638E+01
H   -5.1999727614620728E-01   -6.5140559347840066E-01   -1.2753691962304542E+01
H   -1.4414856928296240E+00   -1.4643859404804005E-02   -1.4409612206243448E+01
H   -4.7091080340366942E-01   -1.7594441577069735E+00   -1.4449189580520210E+01
H    3.2256284883927604E+00    1.0246937337727893E+00   -1.4616378295504667E+01
H    2.4017332149436017E+00    2.7749625165247895E+00   -1.4884221820825534E+01
H    3.9144075014258974E+00    1.6335835383430397E+00   -1.2155031206186363E+01
H    4.3285116875747844E+00    3.2064220510529498E+00   -1.3317053516704316E+01
H    2.7165826393392312E+00    3.2466093101062445E+00   -1.2162763524831291E+01
H   -7.7429820132181533E+00    1.7116378106198546E+00   -1.3752262279635325E+01
H   -5.5263888537052921E+00    1.6902646786729512E+00   -1.5234950653146191E+01
H   -2.9650816582662158E+00    1.4670022023633353E+00   -1.4069521206731961E+01
H   -8.7486110788899989E+00    7.3360871101435521E-01   -1.2419374838607862E+01
H   -9.2769631286397392E+00    1.6692004062073859E-01   -9.2626531061135182E+00
H   -1.0401380408494523E+01   -5.3980297906783625E-01   -1.0760077281986076E+01
H   -7.8803387080187521E+00   -1.8191733368259040E+00   -9.5093680218807055E+00
H   -8.7575597435767403E+00   -2.3141125716247593E+00   -1.1218754573184199E+01
H   -7.2088019088203712E+00   -1.0198790854726760E+00   -1.1205864390629406E+01
H   -1.0985112369976644E+01    1.7922881530876882E+00   -1.1423013629658733E+01
H   -9.9222604456547465E+00    2.3657224787132716E+00   -9.8350410805822488E+00
H   -9.1576678529795998E+00    4.3896880994030472E+00   -1.0968621080054401E+01
H   -8.4299087395371899E+00    3.3329553953864912E+00   -1.2477325474046133E+01
H   -1.0350778276655822E+01    3.9185365327798811E+00   -1.2483614077848339E+01
     &END COORD
     &KIND Dy
       BASIS_SET SZV-MOLOPT-SR-GTH
       POTENTIAL GTH-PBE-q20
       &POTENTIAL
 4 6 0 10
  0.5102968700000000E+00 2  0.1767093508000000E+02 -0.8678777000000000E+00
 4
  0.4421234800000000E+00 2 -0.2715733840000000E+01  0.4017884260000000E+01
 -0.5187066270000000E+01
  0.4501723000000000E+00 2 -0.2773475350000000E+01  0.2201152450000000E+01
 -0.2604438700000000E+01
  0.4711651400000000E+00 1 -0.7522756100000000E+00
  0.2618074100000000E+00 1 -0.2424856414000000E+02
         # Potential name:  GTH-PBE-Q20  for symbol:  DY
         # Potential read from the potential filename: ../POTENTIAL
       &END POTENTIAL
     &END KIND
     &KIND Tb
       BASIS_SET SZV-MOLOPT-SR-GTH
       POTENTIAL GTH-PBE-q19
     &END KIND
     &KIND Ho
       BASIS_SET SZV-MOLOPT-SR-GTH
       POTENTIAL GTH-PBE-q21
     &END KIND
     &KIND Gd
       BASIS_SET SZV-MOLOPT-SR-GTH
       POTENTIAL GTH-PBE-q18
     &END KIND
     &KIND Lu
       BASIS_SET SZV-MOLOPT-SR-GTH
       POTENTIAL GTH-PBE-q25
     &END KIND
     &KIND Pm
       BASIS_SET SZV-MOLOPT-SR-GTH
       POTENTIAL GTH-PBE-q15
     &END KIND
     &KIND Tm
       BASIS_SET SZV-MOLOPT-SR-GTH
       POTENTIAL GTH-PBE-q23
     &END KIND
     &KIND F
       BASIS_SET SZV-GTH-PADE
       POTENTIAL GTH-PBE-q7
     &END KIND
     &KIND S
       BASIS_SET SZV-GTH-PADE
       POTENTIAL GTH-PBE-q6
     &END KIND
     &KIND Na
       BASIS_SET SZV-GTH-PADE
       POTENTIAL GTH-PBE-q9
     &END KIND
     &KIND B
       BASIS_SET SZV-GTH-PADE
       POTENTIAL GTH-PBE-q3
     &END KIND
     &KIND Cl
       BASIS_SET SZV-GTH-PADE
       POTENTIAL GTH-PBE-q7
     &END KIND
     &KIND H
       BASIS_SET SZV-GTH-PADE
       POTENTIAL GTH-PBE-q1
       &POTENTIAL
 1
  0.2000000000000000E+00 2 -0.4178900440000000E+01  0.7244633100000000E+00
 0
         # Potential name:  GTH-PBE-Q1  for symbol:  H
         # Potential read from the potential filename: ../POTENTIAL
       &END POTENTIAL
     &END KIND
     &KIND N
       BASIS_SET SZV-GTH-PADE
       POTENTIAL GTH-PBE-q5
       &POTENTIAL
 2 3
  0.2837905100000000E+00 2 -0.1241522559000000E+02  0.1868095920000000E+01
 2
  0.2554050000000000E+00 1  0.1363026257000000E+02
  0.2454945300000000E+00 0
         # Potential name:  GTH-PBE-Q5  for symbol:  N
         # Potential read from the potential filename: ../POTENTIAL
       &END POTENTIAL
     &END KIND
     &KIND O
       BASIS_SET SZV-GTH-PADE
       POTENTIAL GTH-PBE-q6
       &POTENTIAL
 2 4
  0.2445543000000000E+00 2 -0.1666721480000000E+02  0.2487311320000000E+01
 2
  0.2209559200000000E+00 1  0.1833745811000000E+02
  0.2113324700000000E+00 0
         # Potential name:  GTH-PBE-Q6  for symbol:  O
         # Potential read from the potential filename: ../POTENTIAL
       &END POTENTIAL
     &END KIND
     &KIND C
       BASIS_SET SZV-GTH-PADE
       POTENTIAL GTH-PBE-q4
       &POTENTIAL
 2 2
  0.3384712400000000E+00 2 -0.8803673979999999E+01  0.1339210850000000E+01
 2
  0.3025757500000000E+00 1  0.9622486650000001E+01
  0.2915069400000000E+00 0
         # Potential name:  GTH-PBE-Q4  for symbol:  C
         # Potential read from the potential filename: ../POTENTIAL
       &END POTENTIAL
     &END KIND
     &TOPOLOGY
       COORD_FILE_NAME ../../Dy_L9_L2.xyz
       COORD_FILE_FORMAT  XYZ
       NUMBER_OF_ATOMS  233
       MULTIPLE_UNIT_CELL  1 1 1
     &END TOPOLOGY
   &END SUBSYS
 &END FORCE_EVAL
