 # Version information for this restart file 
 # current date 2023-03-25 18:58:35.239
 # current working dir /mnt/scratch2/users/40265864/MSc_ML_MM/ln_replacements/xyz/Dy_L9_L2/geometry_optimisation/run-6
 # Program compiled at                              Mon 24 Oct 18:14:20 BST 2022
 # Program compiled on                          login1.pri.kelvin2.alces.network
 # Program compiled for                                                    local
 # Source code revision number                                         svn:17462
 &GLOBAL
   PRINT_LEVEL  LOW
   PROJECT_NAME molecule_name
   RUN_TYPE  GEO_OPT
 &END GLOBAL
 &MOTION
   &GEO_OPT
     OPTIMIZER  BFGS
     MAX_DR     5.0000000000000000E-01
     MAX_FORCE     5.0000000000000000E-01
     RMS_DR     5.0000000000000003E-02
     RMS_FORCE     5.0000000000000003E-02
     STEP_START_VAL  3
   &END GEO_OPT
 &END MOTION
 &FORCE_EVAL
   METHOD  QS
   &DFT
     BASIS_SET_FILE_NAME ../BASIS_MOLOPT_UCL
     BASIS_SET_FILE_NAME BASIS_SET
     POTENTIAL_FILE_NAME ../POTENTIAL
     UKS  T
     MULTIPLICITY  6
     CHARGE  3
     &SCF
       MAX_SCF  50
       EPS_SCF     5.0000000000000002E-05
       SCF_GUESS  RESTART
       &OT  T
         MINIMIZER  DIIS
         PRECONDITIONER  FULL_KINETIC
       &END OT
       &OUTER_SCF  T
         EPS_SCF     5.0000000000000002E-05
         MAX_SCF  20
       &END OUTER_SCF
     &END SCF
     &MGRID
       NGRIDS  2
       CUTOFF     4.0000000000000000E+02
       REL_CUTOFF     5.0000000000000000E+01
     &END MGRID
     &XC
       DENSITY_CUTOFF     1.0000000000000000E-10
       GRADIENT_CUTOFF     1.0000000000000000E-10
       TAU_CUTOFF     1.0000000000000000E-10
       &XC_FUNCTIONAL  NO_SHORTCUT
         &PBE  T
         &END PBE
       &END XC_FUNCTIONAL
     &END XC
   &END DFT
   &SUBSYS
     &CELL
       A     2.1000000000000000E+01    0.0000000000000000E+00    0.0000000000000000E+00
       B     0.0000000000000000E+00    2.1000000000000000E+01    0.0000000000000000E+00
       C     0.0000000000000000E+00    0.0000000000000000E+00    1.8000000000000000E+01
       PERIODIC  NONE
       MULTIPLE_UNIT_CELL  1 1 1
     &END CELL
     &COORD
C    8.4005084578841362E+00    1.0676775884265726E+00   -8.7976388207698921E+00
C    6.8782270584109115E+00    5.7914921274920050E-01   -8.7041314443872633E+00
O    6.2638764016531958E+00    1.1640667156044695E+00   -1.0021741007111364E+01
C    4.8471722241352415E+00    7.7432302757110660E-01   -9.8953392887902343E+00
C    3.9177356044444016E+00    1.6543991372825255E+00   -9.1310116593518753E+00
C    2.5356486258605022E+00    1.2763631062935004E+00   -9.3919793288382660E+00
C    2.1655978219412737E+00    5.8572108920228162E-02   -1.0120856198358881E+01
C    3.0401087703936138E+00   -9.1781045844441400E-01   -1.0766815214108908E+01
C    4.4541118255478809E+00   -5.3891131837685358E-01   -1.0545309560084808E+01
O    5.5322179155915050E+00   -1.4037906558239508E+00   -1.1069262664821757E+01
C    5.5219035540781727E+00   -9.8930900958571211E-01   -1.2585431561898265E+01
C    6.6239148571937889E+00   -1.9630541221251689E+00   -1.3201867407629212E+01
C    7.2578687340626058E-01   -2.1709897507463347E-01   -9.8170114519644667E+00
N    1.3871421222067234E-01   -1.3294179079943056E+00   -1.0509112690382246E+01
C   -1.2095112718914141E+00   -1.4844097954472832E+00   -1.0019562640952131E+01
N   -1.9524050482382147E+00   -8.2031071343638595E-01   -8.9604702792932276E+00
Dy   -1.9059709713890025E+00    1.3256222391543613E+00   -7.9230065483780336E+00
N    2.1222375823928613E-01    7.3050377666348165E-01   -8.8153320040003820E+00
C    1.2860264525218879E+00    1.7129806461947936E+00   -8.6410666004102765E+00
N    1.5172314153810957E+00    2.6866827854761297E+00   -7.5932473491916337E+00
C    8.1448217616923935E-01    2.2152384374680345E+00   -6.4047111469389675E+00
C    1.7439494985999395E+00    2.0412906611607267E+00   -5.2119039493661665E+00
C    3.1697472497470365E+00    2.3455565756327803E+00   -5.1023493829858086E+00
C    3.6778509291378372E+00    1.8499635325855770E+00   -3.7854094545892294E+00
O    4.9921164980655579E+00    2.2942060530239186E+00   -3.2841488410267941E+00
C    5.9655876575432210E+00    1.4498053306224528E+00   -4.1840759359227322E+00
C    7.3856610203663564E+00    2.0075502199184232E+00   -3.7561269675293656E+00
C    2.9744288279151001E+00    8.6116510045087136E-01   -2.8737556524446313E+00
C    1.5305999349375670E+00    5.4716606405894519E-01   -3.0315838379059632E+00
C    1.0255407442152396E+00    1.1915436806365762E+00   -4.2496539565615556E+00
C   -2.8093630010669790E-01    8.3146749091546357E-01   -4.8877973126602710E+00
N   -1.1204766752158579E+00   -6.7749362626162948E-02   -4.1473926419846343E+00
C   -2.2047887741453365E+00   -4.6209526757853442E-01   -5.0093628151896068E+00
N   -2.4611954115411354E+00   -2.7883354338802457E-01   -6.4290140531146296E+00
C   -3.7607495626265068E+00   -9.5806437738370309E-01   -6.6711729034428657E+00
N   -4.3352866744841929E+00   -1.4754204764410725E+00   -7.9136564378084975E+00
C   -3.2843578996498075E+00   -1.4994251819624431E+00   -8.9306235253909065E+00
C   -3.3001673504515585E+00   -2.6385982741951133E+00   -9.9231941815706524E+00
C   -1.9845625553925308E+00   -2.6397161866591783E+00   -1.0576157808833655E+01
C   -1.3980604463586648E+00   -3.6549980993406272E+00   -1.1431376096096905E+01
C   -2.3502254420817574E+00   -4.7857380654142450E+00   -1.1574804429619638E+01
O   -1.9067663726206017E+00   -5.9014727198375194E+00   -1.2438608526302826E+01
C   -1.2905267857516582E+00   -6.8771292075519144E+00   -1.1356401480067902E+01
C   -9.1255909008943181E-01   -8.1362020083569035E+00   -1.2240369161450223E+01
C   -3.6281294102636985E+00   -4.9122706815847224E+00   -1.0738055808306221E+01
C   -4.2038035723092246E+00   -3.7918314987343642E+00   -9.9358316335169814E+00
O   -4.4212863028039395E+00   -6.1505708507190517E+00   -1.0871824807709293E+01
C   -5.2644501751849786E+00   -5.7883169127921228E+00   -1.2162416792155851E+01
C   -6.2457179984157536E+00   -7.0341683636660477E+00   -1.2266158679717059E+01
C   -4.2971107486925932E+00   -1.5296911940578199E+00   -5.3805966693735607E+00
C   -3.2520782556833714E+00   -1.3326045783746958E+00   -4.3712783681911427E+00
C   -3.0369536618054416E+00   -2.0572625865784784E+00   -3.1305356626810568E+00
C   -4.0938418991622418E+00   -3.0888399284848900E+00   -2.9459575407063596E+00
C   -5.1436277906435404E+00   -3.3786401672680948E+00   -4.0263141969160765E+00
C   -5.3175157756926206E+00   -2.5730189149889906E+00   -5.2615945849330155E+00
O   -6.0784814636809417E+00   -4.5001225797894282E+00   -3.8204141754463237E+00
C   -7.0974814884959549E+00   -3.8008091400303954E+00   -2.8364861753126474E+00
C   -8.1799555664905856E+00   -4.9570077051101507E+00   -2.6327376734734287E+00
O   -4.0014968206100301E+00   -3.9779403344789306E+00   -1.7787767999378563E+00
C   -3.2632133507049850E+00   -5.2263547012941904E+00   -2.4128626170076735E+00
C   -3.1131633994246086E+00   -6.2215429206354722E+00   -1.1800224025560122E+00
N   -3.9234269733612537E-01    1.4132568701890460E+00   -6.2305523937617435E+00
O    3.7972571519179499E+00    3.0791699922678317E-01   -1.7772491434096978E+00
C    3.2532547089410975E+00    1.0868686683763982E+00   -5.1676950490951301E-01
C    4.0434199606487198E+00    4.2403577046810681E-01    7.0530414995208235E-01
N   -3.9625298566823512E+00    1.8527123509032837E+00   -7.1691071494067264E+00
C   -5.2699480158776932E+00    1.3635763163000754E+00   -7.5787626482246813E+00
N   -5.8216889739250943E+00    1.0298132933313384E+00   -8.8618813341460001E+00
C   -4.7926467421534031E+00    1.1496659803222304E+00   -9.8579460747300853E+00
N   -3.3223068072700053E+00    1.1703382319757805E+00   -9.7667787870799927E+00
C   -2.8453558904597651E+00    1.0865445947554402E+00   -1.1138910376534120E+01
N   -1.5345626737621645E+00    1.2799161014216052E+00   -1.1732338305498736E+01
C   -8.5325527455196515E-01    2.2704096785212475E+00   -1.0944260138873464E+01
N   -1.2382181168677115E+00    2.7939532502870814E+00   -9.6116853817181589E+00
C   -5.9073146128762710E-01    4.0929104516023278E+00   -9.5578459038897901E+00
N   -3.3916584210505019E-01    5.0226009217286833E+00   -8.4941401775703085E+00
C   -1.0026022644465751E+00    4.5535408426565231E+00   -7.3119249281326608E+00
N   -1.8865206367173131E+00    3.4168289079479019E+00   -7.0545149140017509E+00
C   -2.2059390830512711E+00    3.5257646673936924E+00   -5.6102348292755453E+00
N   -3.2406226265271028E+00    2.8842961854580600E+00   -4.8081049015961828E+00
C   -4.1360758555821500E+00    2.2024745165221531E+00   -5.7397077370469507E+00
C   -5.5532089859578964E+00    1.9598398948854139E+00   -5.2929772551865462E+00
C   -6.2654937523981520E+00    1.4324748450632161E+00   -6.4522093569548433E+00
C   -7.7143274099917631E+00    1.3587360963911135E+00   -6.6112390625568382E+00
C   -8.4686583874335000E+00    1.8116234391220380E+00   -5.4006575795010772E+00
C   -7.7618488874480329E+00    2.3050623284965202E+00   -4.1727854858064903E+00
C   -6.2695225951739513E+00    2.4600527494295266E+00   -4.1091277376496347E+00
O   -5.5366561124608547E+00    3.0296576712706984E+00   -2.9659875342888036E+00
C   -5.3208525403817521E+00    1.8679131144302714E+00   -1.9160115369071888E+00
C   -4.0656585087368002E+00    9.7038670587185116E-01   -2.3298013171911109E+00
C   -2.7294914636778231E+00    1.7536420024361592E+00   -1.9864200826879699E+00
C   -6.6098610119508390E+00    9.5682595866278786E-01   -1.7219270060335732E+00
C   -7.7490572232134252E+00    1.7317259582285334E+00   -9.3089393051364810E-01
C   -1.5105653610210756E+00    4.7194951996037711E+00   -4.9940579764332318E+00
C   -7.9717301679752650E-01    5.3546829821423634E+00   -6.0793215149656126E+00
C   -1.4602721087297391E-01    6.6459231555718619E+00   -6.0407282538055016E+00
C   -9.1641884370362331E-02    7.2740466668039909E+00   -4.6754649994604254E+00
C   -8.4953689063121152E-01    6.6302047167342835E+00   -3.5512765528395569E+00
C   -1.6475922202631224E+00    5.3594984354165938E+00   -3.6896431919013688E+00
O    2.1379476549072957E-01    7.1518305868883436E+00   -7.3628905407047140E+00
C    1.5526427175700517E+00    7.9278415446754051E+00   -7.2164636447621406E+00
C    2.7431553621838036E+00    6.9215973955645511E+00   -7.4957380396436157E+00
C    3.0232538257990775E+00    5.9505835341224049E+00   -6.2514883154179941E+00
C    1.4898863341586031E+00    8.9964339227479186E+00   -8.3604863090516464E+00
C    1.8007627971350973E-01    9.8942759927765351E+00   -8.2200323981151815E+00
C    1.0210657745905126E-01    4.4457953813260085E+00   -1.0849627430576138E+01
C    1.2384279702078924E-02    3.2631564039410068E+00   -1.1699674213622936E+01
C    2.9105047918117083E-01    3.4077682674417424E+00   -1.3128214043849866E+01
C    8.5096570619533207E-01    4.7187218726672864E+00   -1.3567447672894460E+01
C    1.0582154299865847E+00    5.8703556326937241E+00   -1.2629474940288974E+01
C    6.1528601872704447E-01    5.7706268552406197E+00   -1.1205170130862619E+01
O    6.5445783762273252E-02    2.2692937129704642E+00   -1.4048489830649357E+01
C    1.2209037858076532E+00    1.2787897707468181E+00   -1.3600027200718067E+01
C    8.8563328204632819E-01    8.2025136612297374E-03   -1.4453073843435735E+01
C   -4.7326285929680884E-01   -6.6512352112963857E-01   -1.3979589591419236E+01
C    2.6191911347414760E+00    1.8953380969317637E+00   -1.4080873126637405E+01
C    3.4235573550013232E+00    2.5116773381099891E+00   -1.2842285500614560E+01
C   -4.0121772369948552E+00    1.1654856320624283E+00   -1.2109420326828005E+01
C   -5.2079787915789071E+00    1.2338496647716615E+00   -1.1285401004573965E+01
C   -6.5686562047322745E+00    1.4478469337651296E+00   -1.1764419474830268E+01
C   -6.6944300551375013E+00    1.5629308730684517E+00   -1.3261287463612472E+01
C   -5.4516933108657790E+00    1.5768730852570436E+00   -1.4095509778383152E+01
C   -4.0541745114456509E+00    1.4163383069578572E+00   -1.3548264922308931E+01
O   -7.5571736617184015E+00    1.5060720521789559E+00   -1.0700015809737952E+01
C   -8.9232113527496821E+00    1.0223297586571913E+00   -1.1276698292602566E+01
C   -9.3079908613951456E+00   -2.2830512325717220E-01   -1.0396726033882736E+01
C   -8.2307577859576568E+00   -1.4003631991630074E+00   -1.0605747427472505E+01
C   -9.9399164840811238E+00    2.1906671001119431E+00   -1.1026119902008359E+01
C   -9.4455806834011131E+00    3.5162495652359822E+00   -1.1786276453271435E+01
H    8.7991248702205116E+00    1.2255241292471042E+00   -7.6414753236489430E+00
H    9.0808843668366777E+00    2.5368105091912668E-01   -9.4418128482315620E+00
H    8.3725428457159676E+00    2.1567400670998360E+00   -9.3951290746413250E+00
H    6.7132951167798991E+00   -6.6557466858550152E-01   -8.7144410582298679E+00
H    6.2418897219222282E+00    1.0075052652097631E+00   -7.7079005555185542E+00
H    4.1647241443632623E+00    2.6223469684184080E+00   -8.4095968614509786E+00
H    2.5674641309613868E+00   -1.9350325787940150E+00   -1.1297138952663605E+01
H    4.3724494864098560E+00   -1.1224345431650582E+00   -1.3073812220192512E+01
H    5.7893460649609443E+00    2.3439697755326933E-01   -1.2641591367504882E+01
H    7.1864336765201591E+00   -2.4576608935810653E+00   -1.2211615988947356E+01
H    6.0765594990659917E+00   -2.8618573445110429E+00   -1.3841016507468764E+01
H    7.4166838521877940E+00   -1.3017749756196573E+00   -1.3867333676485467E+01
H    3.7148441233607072E+00    3.0573028109266454E+00   -5.9361291387308981E+00
H    5.7766964811570380E+00    2.4435458839522770E-01   -3.8987439418375840E+00
H    5.6934585770746997E+00    1.5930504840567674E+00   -5.4005349051523002E+00
H    7.3758920445119580E+00    2.0110251422564787E+00   -2.5178104087545852E+00
H    8.2452742185230239E+00    1.2468764150926310E+00   -4.1981614054642318E+00
H    7.4865284943709947E+00    3.1695772269265188E+00   -4.1638755094483111E+00
H    8.0224299142133548E-01   -1.9962324103092444E-01   -2.3612228370959039E+00
H   -2.4080768930884877E-01   -3.5471210597322038E+00   -1.1872026638363629E+01
H   -3.0156471124684675E-01   -6.3074163121195115E+00   -1.0826792363718651E+01
H   -2.1364030786063903E+00   -7.0871878884536610E+00   -1.0456017586457929E+01
H   -6.5176977547591819E-01   -9.0733580126716156E+00   -1.1487172937619880E+01
H   -1.9060350573957154E+00   -8.3688572565757884E+00   -1.2941101286752202E+01
H    3.6487273995921263E-02   -7.8151189289445320E+00   -1.2964681122478687E+01
H   -5.2518396552260809E+00   -3.7311794263549740E+00   -9.2807001631243882E+00
H   -5.8539701537748199E+00   -4.6863417060527413E+00   -1.2026809200218537E+01
H   -4.4585975338002442E+00   -5.6614913643884321E+00   -1.3116763046646231E+01
H   -6.5022031708172703E+00   -7.3575733019232841E+00   -1.1096112632697377E+01
H   -7.2709860920452565E+00   -6.7050797756956131E+00   -1.2860761244796473E+01
H   -5.6433537026607699E+00   -7.9550634004118095E+00   -1.2821095257206327E+01
H   -1.9936883323431873E+00   -1.9142282196553639E+00   -2.4577424086777877E+00
H   -6.1586380896998998E+00   -2.7004476982556924E+00   -6.1536088946627592E+00
H   -6.4758066171060786E+00   -3.4702037834034405E+00   -1.8036554485374248E+00
H   -7.5761708537798480E+00   -2.7508002916560157E+00   -3.3324803283711044E+00
H   -8.3342414161866980E+00   -5.1779809759292581E+00   -1.4346093855446644E+00
H   -9.2267738156888317E+00   -4.6722771281291298E+00   -3.2130276410435465E+00
H   -7.6762406661777636E+00   -5.9491894808329153E+00   -3.1815252019040505E+00
H   -3.9665097851804241E+00   -5.6615789188765122E+00   -3.3467232807518545E+00
H   -2.1595180249110579E+00   -4.8738654184242014E+00   -2.8922745668130765E+00
H   -3.1510845417445963E+00   -7.3748414983889372E+00   -1.6070199830268608E+00
H   -2.0655904574277617E+00   -5.9779336714721998E+00   -5.7649367367130200E-01
H   -4.0829938107164105E+00   -6.0009109532022720E+00   -4.4190873472444719E-01
H    3.5408552024319007E+00    2.2865335013181118E+00   -7.3136581499363496E-01
H    2.0068411837285032E+00    9.8730863347096820E-01   -4.3211178753816115E-01
H    3.9726998209210147E+00   -8.0296820161029892E-01    4.9916523916454036E-01
H    5.2335546061839544E+00    7.3361090454656130E-01    5.2132940225764002E-01
H    3.5682804181369998E+00    8.0744972346851829E-01    1.8025810978346359E+00
H   -8.0873875128037191E+00    9.6433574251263499E-01   -7.7375647337352937E+00
H   -9.6891787337896229E+00    1.7711960323740217E+00   -5.4345022319353493E+00
H   -8.3671071499751459E+00    2.7309516070297803E+00   -3.2067295343053366E+00
H   -5.1042200970694722E+00    2.4998432196432963E+00   -8.6702545214344451E-01
H   -4.1496236437436762E+00   -7.0637015508027395E-02   -1.6743599269011289E+00
H   -4.1144280313890702E+00    6.3090101658195574E-01   -3.5062260562202296E+00
H   -2.6252326237542976E+00    1.8493594597764833E+00   -7.5812676739195517E-01
H   -1.7697784798837521E+00    1.1568836684567918E+00   -2.4758318231344125E+00
H   -2.8160430716173672E+00    2.8742888626178367E+00   -2.4865400970685338E+00
H   -7.0250330524925113E+00    4.7240647087937054E-01   -2.7716587751969106E+00
H   -6.2018183992167080E+00    1.4632277278341403E-03   -1.0602118510309546E+00
H   -7.5556533368448466E+00    1.6207105042664010E+00    2.8225532187572566E-01
H   -7.7116223621514823E+00    2.9312280570918765E+00   -1.2045068342064416E+00
H   -8.8586654140299803E+00    1.2612573083457985E+00   -1.1779957017149056E+00
H    4.5226680236569189E-01    8.3486322646154427E+00   -4.4991087693167540E+00
H   -8.4244116343737996E-01    7.1732569072974552E+00   -2.4570207859639805E+00
H   -2.3754373804658573E+00    4.7704077028789467E+00   -2.8823924059099153E+00
H    1.6138714106134810E+00    8.4250242557750532E+00   -6.0916802687791582E+00
H    2.4519599026697740E+00    6.2719141182760474E+00   -8.4975749817869151E+00
H    3.7165524611139964E+00    7.6295176354548948E+00   -7.7527706200974276E+00
H    2.9137117700750692E+00    4.7667231732831894E+00   -6.5707451104702859E+00
H    4.1667895920873805E+00    6.1545351830640413E+00   -5.8296697286852925E+00
H    2.2426741209007561E+00    6.1298949644361143E+00   -5.3128190118623078E+00
H    2.5157273922251808E+00    9.6688659862005419E+00   -8.3308198523356065E+00
H    1.4564478086239747E+00    8.3807146230477478E+00   -9.4263043843240713E+00
H   -8.9585391871750700E-02    1.0092755136456406E+01   -7.0308459834580797E+00
H    3.6658142629230805E-01    1.0981742442429079E+01   -8.7647830209778927E+00
H   -8.1285042078969227E-01    9.3544591539951458E+00   -8.7209238148475965E+00
H    1.2114583992214059E+00    4.7660632139738404E+00   -1.4729948142728180E+01
H    1.5437339432458443E+00    6.9151330619742382E+00   -1.3037525863884589E+01
H    6.4386103872122891E-01    6.6159390870701644E+00   -1.0289727948023689E+01
H    1.2047521628966322E+00    1.0653284118704553E+00   -1.2370507173107104E+01
H    7.8710750640126559E-01    4.4697768596435816E-01   -1.5606299438615865E+01
H    1.8496297538863924E+00   -7.4644778934124090E-01   -1.4422532886326225E+01
H   -5.3549635572897913E-01   -6.6345554836755904E-01   -1.2746484636453316E+01
H   -1.4431744993290063E+00   -1.6278523864418450E-02   -1.4381734294270640E+01
H   -5.2549948724503637E-01   -1.8041452785862231E+00   -1.4439343456181529E+01
H    3.2494018527998394E+00    1.0132626425801712E+00   -1.4715636918632942E+01
H    2.3825251905556657E+00    2.7771121942647583E+00   -1.4902835312835482E+01
H    3.8967930093547514E+00    1.6321305852045116E+00   -1.2117805540756500E+01
H    4.3419617762960145E+00    3.2067131623924050E+00   -1.3291273636700121E+01
H    2.7088328939892561E+00    3.2465630014311002E+00   -1.2152654639322721E+01
H   -7.7745492497282536E+00    1.7240258317376316E+00   -1.3794783511056762E+01
H   -5.5647134760326020E+00    1.7103206280884338E+00   -1.5305473950642886E+01
H   -2.9531876709597320E+00    1.4704823194454175E+00   -1.4109302827925774E+01
H   -8.7635448633465423E+00    7.1281958842794280E-01   -1.2456371399145260E+01
H   -9.3195536885915455E+00    1.6146665093075740E-01   -9.2333133206109892E+00
H   -1.0456743331511323E+01   -5.5151309940781501E-01   -1.0708985779481548E+01
H   -7.8570766331704185E+00   -1.8416627563310004E+00   -9.5167549615252245E+00
H   -8.7272752404713447E+00   -2.3380312203344245E+00   -1.1235373179387933E+01
H   -7.2132083356999219E+00   -1.0161046717219371E+00   -1.1195353055169655E+01
H   -1.1049663798846824E+01    1.7999329611038479E+00   -1.1387153918343055E+01
H   -9.9845836613798014E+00    2.3691680497537733E+00   -9.8086737433803801E+00
H   -9.1434718720589583E+00    4.4078474951278714E+00   -1.0988014322703174E+01
H   -8.4346839044941309E+00    3.3373313021327649E+00   -1.2471010148438770E+01
H   -1.0336688543245300E+01    3.9571460345366822E+00   -1.2514604327367966E+01
     &END COORD
     &KIND Dy
       BASIS_SET SZV-MOLOPT-SR-GTH
       POTENTIAL GTH-PBE-q20
       &POTENTIAL
 4 6 0 10
  0.5102968700000000E+00 2  0.1767093508000000E+02 -0.8678777000000000E+00
 4
  0.4421234800000000E+00 2 -0.2715733840000000E+01  0.4017884260000000E+01
 -0.5187066270000000E+01
  0.4501723000000000E+00 2 -0.2773475350000000E+01  0.2201152450000000E+01
 -0.2604438700000000E+01
  0.4711651400000000E+00 1 -0.7522756100000000E+00
  0.2618074100000000E+00 1 -0.2424856414000000E+02
         # Potential name:  GTH-PBE-Q20  for symbol:  DY
         # Potential read from the potential filename: ../POTENTIAL
       &END POTENTIAL
     &END KIND
     &KIND Tb
       BASIS_SET SZV-MOLOPT-SR-GTH
       POTENTIAL GTH-PBE-q19
     &END KIND
     &KIND Ho
       BASIS_SET SZV-MOLOPT-SR-GTH
       POTENTIAL GTH-PBE-q21
     &END KIND
     &KIND Gd
       BASIS_SET SZV-MOLOPT-SR-GTH
       POTENTIAL GTH-PBE-q18
     &END KIND
     &KIND Lu
       BASIS_SET SZV-MOLOPT-SR-GTH
       POTENTIAL GTH-PBE-q25
     &END KIND
     &KIND Pm
       BASIS_SET SZV-MOLOPT-SR-GTH
       POTENTIAL GTH-PBE-q15
     &END KIND
     &KIND Tm
       BASIS_SET SZV-MOLOPT-SR-GTH
       POTENTIAL GTH-PBE-q23
     &END KIND
     &KIND F
       BASIS_SET SZV-GTH-PADE
       POTENTIAL GTH-PBE-q7
     &END KIND
     &KIND S
       BASIS_SET SZV-GTH-PADE
       POTENTIAL GTH-PBE-q6
     &END KIND
     &KIND Na
       BASIS_SET SZV-GTH-PADE
       POTENTIAL GTH-PBE-q9
     &END KIND
     &KIND B
       BASIS_SET SZV-GTH-PADE
       POTENTIAL GTH-PBE-q3
     &END KIND
     &KIND Cl
       BASIS_SET SZV-GTH-PADE
       POTENTIAL GTH-PBE-q7
     &END KIND
     &KIND H
       BASIS_SET SZV-GTH-PADE
       POTENTIAL GTH-PBE-q1
       &POTENTIAL
 1
  0.2000000000000000E+00 2 -0.4178900440000000E+01  0.7244633100000000E+00
 0
         # Potential name:  GTH-PBE-Q1  for symbol:  H
         # Potential read from the potential filename: ../POTENTIAL
       &END POTENTIAL
     &END KIND
     &KIND N
       BASIS_SET SZV-GTH-PADE
       POTENTIAL GTH-PBE-q5
       &POTENTIAL
 2 3
  0.2837905100000000E+00 2 -0.1241522559000000E+02  0.1868095920000000E+01
 2
  0.2554050000000000E+00 1  0.1363026257000000E+02
  0.2454945300000000E+00 0
         # Potential name:  GTH-PBE-Q5  for symbol:  N
         # Potential read from the potential filename: ../POTENTIAL
       &END POTENTIAL
     &END KIND
     &KIND O
       BASIS_SET SZV-GTH-PADE
       POTENTIAL GTH-PBE-q6
       &POTENTIAL
 2 4
  0.2445543000000000E+00 2 -0.1666721480000000E+02  0.2487311320000000E+01
 2
  0.2209559200000000E+00 1  0.1833745811000000E+02
  0.2113324700000000E+00 0
         # Potential name:  GTH-PBE-Q6  for symbol:  O
         # Potential read from the potential filename: ../POTENTIAL
       &END POTENTIAL
     &END KIND
     &KIND C
       BASIS_SET SZV-GTH-PADE
       POTENTIAL GTH-PBE-q4
       &POTENTIAL
 2 2
  0.3384712400000000E+00 2 -0.8803673979999999E+01  0.1339210850000000E+01
 2
  0.3025757500000000E+00 1  0.9622486650000001E+01
  0.2915069400000000E+00 0
         # Potential name:  GTH-PBE-Q4  for symbol:  C
         # Potential read from the potential filename: ../POTENTIAL
       &END POTENTIAL
     &END KIND
     &TOPOLOGY
       COORD_FILE_NAME ../../Dy_L9_L2.xyz
       COORD_FILE_FORMAT  XYZ
       NUMBER_OF_ATOMS  233
       MULTIPLE_UNIT_CELL  1 1 1
     &END TOPOLOGY
   &END SUBSYS
 &END FORCE_EVAL
