 # Version information for this restart file 
 # current date 2023-03-25 19:09:53.372
 # current working dir /mnt/scratch2/users/40265864/MSc_ML_MM/ln_replacements/xyz/Dy_L9_L2/geometry_optimisation/run-0
 # Program compiled at                              Mon 24 Oct 18:14:20 BST 2022
 # Program compiled on                          login1.pri.kelvin2.alces.network
 # Program compiled for                                                    local
 # Source code revision number                                         svn:17462
 &GLOBAL
   PRINT_LEVEL  LOW
   PROJECT_NAME molecule_name
   RUN_TYPE  GEO_OPT
 &END GLOBAL
 &MOTION
   &GEO_OPT
     OPTIMIZER  BFGS
     MAX_DR     5.0000000000000000E-01
     MAX_FORCE     5.0000000000000000E-01
     RMS_DR     5.0000000000000003E-02
     RMS_FORCE     5.0000000000000003E-02
     STEP_START_VAL  7
   &END GEO_OPT
 &END MOTION
 &FORCE_EVAL
   METHOD  QS
   &DFT
     BASIS_SET_FILE_NAME ../BASIS_MOLOPT_UCL
     BASIS_SET_FILE_NAME BASIS_SET
     POTENTIAL_FILE_NAME ../POTENTIAL
     UKS  T
     MULTIPLICITY  0
     CHARGE  3
     &SCF
       MAX_SCF  50
       EPS_SCF     5.0000000000000002E-05
       SCF_GUESS  RESTART
       &OT  T
         MINIMIZER  DIIS
         PRECONDITIONER  FULL_KINETIC
       &END OT
       &OUTER_SCF  T
         EPS_SCF     5.0000000000000002E-05
         MAX_SCF  20
       &END OUTER_SCF
     &END SCF
     &MGRID
       NGRIDS  2
       CUTOFF     4.0000000000000000E+02
       REL_CUTOFF     5.0000000000000000E+01
     &END MGRID
     &XC
       DENSITY_CUTOFF     1.0000000000000000E-10
       GRADIENT_CUTOFF     1.0000000000000000E-10
       TAU_CUTOFF     1.0000000000000000E-10
       &XC_FUNCTIONAL  NO_SHORTCUT
         &PBE  T
         &END PBE
       &END XC_FUNCTIONAL
     &END XC
   &END DFT
   &SUBSYS
     &CELL
       A     2.1000000000000000E+01    0.0000000000000000E+00    0.0000000000000000E+00
       B     0.0000000000000000E+00    2.1000000000000000E+01    0.0000000000000000E+00
       C     0.0000000000000000E+00    0.0000000000000000E+00    1.8000000000000000E+01
       PERIODIC  NONE
       MULTIPLE_UNIT_CELL  1 1 1
     &END CELL
     &COORD
C    8.8716985447501600E+00    9.7735756304062615E-01   -8.9408169626411809E+00
C    7.2462078538726207E+00    5.7067368929354545E-01   -8.8433510715699288E+00
O    6.5043288044278365E+00    1.1866054885465946E+00   -1.0075738692035248E+01
C    5.0526165031931294E+00    8.7706118076487527E-01   -1.0068721943669047E+01
C    4.0060202596807608E+00    1.7874880427443329E+00   -9.5094179151307792E+00
C    2.5787712615439116E+00    1.5060669605756296E+00   -9.7305069086774445E+00
C    2.1500378671535296E+00    3.1410988319517763E-01   -1.0486667598127493E+01
C    3.1550573134520246E+00   -6.6341492382567857E-01   -1.0880438839238483E+01
C    4.5953190249733753E+00   -4.2540252605063167E-01   -1.0608019974362673E+01
O    5.6651826754735399E+00   -1.3766479388115049E+00   -1.1051419046404298E+01
C    5.6568447926502365E+00   -1.0356749255244317E+00   -1.2609621513229598E+01
C    6.7192277296146399E+00   -1.9862325330146879E+00   -1.3360938736728560E+01
C    7.2104611923478301E-01   -2.4235864761267420E-02   -1.0011531751259120E+01
N    1.9982318532351800E-02   -1.1358839375911127E+00   -1.0612141654892778E+01
C   -1.3078104748291970E+00   -1.3890070661727487E+00   -1.0120987061191512E+01
N   -2.0369281907730543E+00   -7.9327156050760250E-01   -8.9799157058172163E+00
Dy   -1.7224419403616309E+00    1.3826317607807908E+00   -7.8008358097267685E+00
N    2.7711473073441695E-01    8.5152052930704669E-01   -8.9030715635725315E+00
C    1.4163988135650352E+00    1.7975481039189443E+00   -8.7107441082668835E+00
N    1.6473247102159094E+00    2.6898885930856848E+00   -7.5744790211751152E+00
C    9.3494461445234900E-01    2.3281707378503729E+00   -6.3236405601777257E+00
C    1.7002642910402987E+00    2.3539282430916493E+00   -4.9793554374972349E+00
C    3.1406316567834018E+00    2.5502305476644880E+00   -4.7960449709351405E+00
C    3.7897957060966303E+00    1.9840619128843726E+00   -3.5737257134793237E+00
O    5.1906569940893243E+00    2.2983329134687609E+00   -3.2557320071136702E+00
C    6.1214296805167860E+00    1.4582370693699587E+00   -4.1934095096045887E+00
C    7.6013090684141833E+00    1.9541520643691643E+00   -3.8182534472917613E+00
C    3.0776477924582792E+00    1.0461707199836452E+00   -2.6746822981588401E+00
C    1.6445617515993880E+00    7.5761824944829648E-01   -2.9700748971136837E+00
C    9.6804019402742836E-01    1.4572074787001996E+00   -4.0598281453720615E+00
C   -2.9605323178400578E-01    9.9278012426775686E-01   -4.7829340530036948E+00
N   -1.2266549876449486E+00    1.1041922140324162E-01   -4.1771283777452979E+00
C   -2.3706200471214287E+00   -3.1415770431546763E-01   -4.9335339757677739E+00
N   -2.6117049669524808E+00   -1.9856122184214081E-01   -6.3812567047725022E+00
C   -3.8568436666515509E+00   -9.1827559914351919E-01   -6.6301026360582664E+00
N   -4.2908302656300989E+00   -1.4974022560573532E+00   -7.8845870387938959E+00
C   -3.3169065320020388E+00   -1.5088129734225075E+00   -8.9292295600264850E+00
C   -3.4105596371845053E+00   -2.5799650331997239E+00   -1.0050382031711338E+01
C   -2.1242691825239586E+00   -2.4984367599419888E+00   -1.0766308678105842E+01
C   -1.6164280438050143E+00   -3.5964213340445421E+00   -1.1593774891265703E+01
C   -2.4382727479596733E+00   -4.8244304552617594E+00   -1.1699123626265228E+01
O   -1.9086999798637958E+00   -5.9844678283827042E+00   -1.2484990682026760E+01
C   -1.3128451278993798E+00   -7.0043523108245767E+00   -1.1423459049048311E+01
C   -8.5512411814653433E-01   -8.3218898822295397E+00   -1.2217005617445073E+01
C   -3.6392696091153560E+00   -4.9691144048748166E+00   -1.0866566011583469E+01
C   -4.1914970290535356E+00   -3.8267262457295899E+00   -1.0105288246841162E+01
O   -4.4210411465655506E+00   -6.2556399651214072E+00   -1.0928472462647724E+01
C   -5.3110688746655352E+00   -5.9556754146106687E+00   -1.2218827587564231E+01
C   -6.3636115978425183E+00   -7.1436088924349566E+00   -1.2397549340341172E+01
C   -4.4814215503868358E+00   -1.4091181998111708E+00   -5.3093614954116966E+00
C   -3.4489319417058608E+00   -1.1473058208297497E+00   -4.2915366500586050E+00
C   -3.3205966930117197E+00   -1.9597435321710741E+00   -3.0864178755094631E+00
C   -4.2458238489977962E+00   -3.0912655348155194E+00   -2.8826440586896203E+00
C   -5.1919389789901844E+00   -3.4109276767055623E+00   -3.9700152720069495E+00
C   -5.3873464506180158E+00   -2.5438905540200447E+00   -5.1298008503200316E+00
O   -6.1036583807453804E+00   -4.6054072027229944E+00   -3.8270395643996080E+00
C   -7.1540415861094102E+00   -3.9844147468256272E+00   -2.7918190795649718E+00
C   -8.3252506237323036E+00   -5.0451855913421628E+00   -2.5171931603485538E+00
O   -4.0827774278322648E+00   -4.0129382155768401E+00   -1.7098849374095531E+00
C   -3.3506675557211527E+00   -5.2921297651110661E+00   -2.3261314443983871E+00
C   -3.1012343227822083E+00   -6.3643187370882410E+00   -1.1493878765098609E+00
N   -2.8636137347971669E-01    1.5307547494802358E+00   -6.1698922833134224E+00
O    3.8718275618757341E+00    4.3731052428605516E-01   -1.5328688400200698E+00
C    3.1795055806449657E+00    1.1749758358262457E+00   -2.3561011329304477E-01
C    3.8641859402330705E+00    5.8509845599713350E-01    1.1489202534085228E+00
N   -4.1408739663231904E+00    1.7740889372299886E+00   -7.0216508360989343E+00
C   -5.4422157400889759E+00    1.2548685620310918E+00   -7.5114317161824973E+00
N   -5.8096790364387241E+00    9.6756967398489380E-01   -8.8950807413058950E+00
C   -4.8515044595932908E+00    9.5293303212622993E-01   -1.0005346646416379E+01
N   -3.3574541524082786E+00    1.1459166156786529E+00   -9.9630110157884406E+00
C   -2.9227631761226616E+00    1.0786134568360455E+00   -1.1364676344187421E+01
N   -1.5617093244404223E+00    1.3977614817026982E+00   -1.1934947797567558E+01
C   -8.0925972624134557E-01    2.3810463773605317E+00   -1.1146433193495742E+01
N   -1.1321754450785861E+00    2.8758580948553250E+00   -9.7658508020673622E+00
C   -3.5799596129358691E-01    4.1123236416693327E+00   -9.5933454975194259E+00
N   -2.8634484377863384E-01    4.9864334154704615E+00   -8.4362489234547109E+00
C   -9.7845483330253769E-01    4.6169031019197311E+00   -7.2077884857584911E+00
N   -1.9275802307510133E+00    3.5233917729369266E+00   -6.9000776890026136E+00
C   -2.2650256651801324E+00    3.5669875909750459E+00   -5.4575066841104869E+00
N   -3.2947158856563341E+00    2.7952285042857854E+00   -4.7993226044177284E+00
C   -4.2733060481070781E+00    2.0819153816205729E+00   -5.5962795897584430E+00
C   -5.6984614164735961E+00    1.6896015601280894E+00   -5.0990826367955808E+00
C   -6.4317713039986453E+00    1.2268521167142503E+00   -6.3187714588738579E+00
C   -7.9006718497648176E+00    1.2585462905330884E+00   -6.3960641907757001E+00
C   -8.6918016573578694E+00    1.7520483554377984E+00   -5.2287954141428505E+00
C   -7.9645812290602009E+00    2.2470836662364366E+00   -4.0391828584504221E+00
C   -6.4712968251963021E+00    2.2932131138985579E+00   -3.9921927271031672E+00
O   -5.8005753914310434E+00    2.9973725469154986E+00   -2.8328023293450579E+00
C   -5.3117179077784433E+00    1.7887063905306284E+00   -1.8262457471277951E+00
C   -4.0604249047211223E+00    9.9285417062282344E-01   -2.3889863016255193E+00
C   -2.6946731527108079E+00    1.7484505932118144E+00   -2.0935724200290431E+00
C   -6.5947288097524508E+00    9.0530230643569654E-01   -1.6506560449914105E+00
C   -7.7615411873892919E+00    1.7436320766272642E+00   -9.5335965654454380E-01
C   -1.4194684909618660E+00    4.7144323532201726E+00   -4.7726015592762323E+00
C   -6.9845302423283551E-01    5.3699610439298135E+00   -5.8939679065340611E+00
C   -5.2913367296909299E-02    6.7178262387101171E+00   -5.7796300094253077E+00
C   -2.0096776592923929E-02    7.3768928661622217E+00   -4.4288006947953198E+00
C   -7.5775677016944898E-01    6.7434440401683764E+00   -3.3162439535706199E+00
C   -1.4720414804151440E+00    5.4234998659892879E+00   -3.4582722928776595E+00
O    2.4590699060270574E-01    7.3160453372898200E+00   -7.0763377093663147E+00
C    1.6548587489026518E+00    8.0581997837735155E+00   -7.1908471689625415E+00
C    2.7526053487484168E+00    6.9108623648623313E+00   -7.4656697156291232E+00
C    2.9646579866431786E+00    5.8964123548552561E+00   -6.2422247144364684E+00
C    1.5326650127276713E+00    9.0932839216744359E+00   -8.4162794789699706E+00
C    2.0530481581595081E-01    9.9698061086274929E+00   -8.2625731521277128E+00
C    4.6750487768962218E-01    4.4309722204061606E+00   -1.0877441661373625E+01
C    2.8176805100967428E-01    3.2978614440205818E+00   -1.1817005069740874E+01
C    5.5485949277100277E-01    3.5054373514259494E+00   -1.3274705737662758E+01
C    1.0889767295746202E+00    4.8292996940701203E+00   -1.3746007340009911E+01
C    1.2274998614427548E+00    5.9579109899678064E+00   -1.2799077229884695E+01
C    9.0152446765127314E-01    5.7582130275334356E+00   -1.1344418929227693E+01
O    3.7101540909129760E-01    2.4163981340875851E+00   -1.4265897387322488E+01
C    1.3597062325311682E+00    1.1600030624510091E+00   -1.3857115028737185E+01
C    8.8959935828577341E-01   -1.8652169177750189E-01   -1.4554607962632378E+01
C   -4.8162822509262065E-01   -7.7784691782355153E-01   -1.3963240222322339E+01
C    2.7770768988631365E+00    1.7761798773906274E+00   -1.4430092340194989E+01
C    3.4922797439569284E+00    2.3039786081775260E+00   -1.3020014064841607E+01
C   -4.1266686070390728E+00    8.8927816094964085E-01   -1.2347811473390097E+01
C   -5.3289805765633966E+00    8.5465825647068583E-01   -1.1466375281497996E+01
C   -6.6741681344435584E+00    1.2406555738279741E+00   -1.1998385388623559E+01
C   -6.7749013325435499E+00    1.5260287087001920E+00   -1.3488063959442028E+01
C   -5.5642082190458542E+00    1.5262165225457536E+00   -1.4347577417920771E+01
C   -4.1923003173945217E+00    1.2498909525336963E+00   -1.3785591396446764E+01
O   -7.6853822608799263E+00    1.5608932783971994E+00   -1.0962554262846467E+01
C   -9.1877082174259588E+00    1.0103235957389614E+00   -1.1248675022134968E+01
C   -9.5035216428006155E+00   -2.3050191712022106E-01   -1.0259269069785834E+01
C   -8.3669429169377647E+00   -1.3669573682900518E+00   -1.0544442113479654E+01
C   -1.0197723861362380E+01    2.2293053374611880E+00   -1.0962886162206518E+01
C   -9.5915636149541577E+00    3.5166344991597076E+00   -1.1753563822308461E+01
H    9.2227620531684220E+00    1.1540268686806980E+00   -7.7731114196957707E+00
H    9.7524604341080359E+00    2.8612598551665069E-01   -9.5632585049137599E+00
H    8.8637327724239494E+00    2.0983815328169788E+00   -9.4485857385377088E+00
H    6.9653283118982712E+00   -6.3713596328223743E-01   -8.7964003095736611E+00
H    6.6456955383828049E+00    1.0846939700641531E+00   -7.8843874501027971E+00
H    4.3403110759056318E+00    2.6451980554291885E+00   -8.7403806689098342E+00
H    2.8351171329236062E+00   -1.7979071400647682E+00   -1.1182398839050670E+01
H    4.4903706779827566E+00   -1.2068480402265529E+00   -1.2941214969340523E+01
H    5.9008657426696898E+00    1.6243788422207714E-01   -1.2704141817148567E+01
H    7.3605866964978857E+00   -2.5084411961986408E+00   -1.2474295662866506E+01
H    6.1957301302147121E+00   -2.8619039454222666E+00   -1.4010187905983951E+01
H    7.4999182985253263E+00   -1.4071970181641775E+00   -1.4087714355456001E+01
H    3.7961299239754784E+00    3.1490935735469607E+00   -5.6036309405975482E+00
H    5.9159184563396821E+00    2.8372283652125957E-01   -3.9024768228092106E+00
H    5.7452391072773858E+00    1.6818637543604504E+00   -5.3315282469418959E+00
H    7.6416100785008840E+00    1.9604389595646263E+00   -2.6057021563002585E+00
H    8.5218154324926161E+00    1.2810611907336948E+00   -4.2252841260267875E+00
H    7.7208305363858605E+00    3.0967767190110518E+00   -4.1935732970222972E+00
H    1.0530734283166474E+00   -1.4453977795006198E-01   -2.4367197606517550E+00
H   -5.1601438006077893E-01   -3.5875617426558351E+00   -1.2012018773778644E+01
H   -3.9335630095828894E-01   -6.3581715583458580E+00   -1.0926866293506327E+01
H   -2.2337828961650277E+00   -7.1715493001664798E+00   -1.0627463737254276E+01
H   -5.3761393225505838E-01   -9.2686557824660163E+00   -1.1516764375512780E+01
H   -1.7931011595025741E+00   -8.6785841934307335E+00   -1.2900773944900624E+01
H    8.5559098458278346E-02   -8.0729001050839084E+00   -1.2934727408706044E+01
H   -5.1538168796129824E+00   -4.0321928531859443E+00   -9.3928447929684733E+00
H   -5.8095743923854251E+00   -4.8706272796813161E+00   -1.1917452922050840E+01
H   -4.4887005851421433E+00   -5.7897071040798913E+00   -1.3117835248254002E+01
H   -6.7145095334088465E+00   -7.4518289338491073E+00   -1.1278199902196725E+01
H   -7.3639492280112195E+00   -6.8509127785884774E+00   -1.3026900656852074E+01
H   -5.8557824335881570E+00   -8.1024146220801452E+00   -1.2928813864621835E+01
H   -2.3717862661031255E+00   -1.8162380708965211E+00   -2.4107615514629663E+00
H   -6.1419137085133473E+00   -2.9733946211574982E+00   -5.9856072975246404E+00
H   -6.4820530049862963E+00   -3.6972531159503008E+00   -1.8049323273099309E+00
H   -7.4841711430880711E+00   -2.9709699633833111E+00   -3.3960953281789918E+00
H   -8.5826298083903403E+00   -5.2438238057744320E+00   -1.3457220107614556E+00
H   -9.3631478145729172E+00   -4.7283650566657709E+00   -3.0593566458380934E+00
H   -7.9693494680083861E+00   -6.1062482163404619E+00   -2.9970009394619330E+00
H   -4.1357863170295950E+00   -5.6774634775199093E+00   -3.1902699463052615E+00
H   -2.3145627756278113E+00   -4.8575902389070498E+00   -2.8228144919265792E+00
H   -3.0629650093073209E+00   -7.5277732519574734E+00   -1.5144184206728912E+00
H   -2.0792646805300938E+00   -6.1554455072601302E+00   -5.3706498241600620E-01
H   -4.0394754752947923E+00   -6.2692980998421008E+00   -3.8426328171552282E-01
H    3.4829041206665017E+00    2.3331910513468213E+00   -4.6644035902789782E-01
H    1.9857224393387309E+00    9.1706237040733807E-01   -3.7960248647757699E-01
H    3.7354505308845307E+00   -6.4814503382862043E-01    1.1903853234664057E+00
H    5.0577411659505449E+00    8.8417915243057554E-01    1.2232613350483836E+00
H    3.2637704002190357E+00    1.2040641696090395E+00    2.1236205997401103E+00
H   -8.3821759857466969E+00    1.0614377955143814E+00   -7.4567464867179094E+00
H   -9.9073351314222897E+00    1.8544411900594571E+00   -5.2588149256953383E+00
H   -8.6225115938013310E+00    2.6612161245230737E+00   -3.1141585337445652E+00
H   -4.9957151478805821E+00    2.3694054779611204E+00   -8.1469952888896746E-01
H   -4.0894891127736432E+00   -1.1811243578395578E-01   -1.8924550766689832E+00
H   -4.2426607724580796E+00    8.2416534649842521E-01   -3.5544772507631586E+00
H   -2.5608597384757550E+00    1.8396090419023443E+00   -8.9794490900780921E-01
H   -1.7308514116027212E+00    1.1805095391833089E+00   -2.5517364075421098E+00
H   -2.7591422016580665E+00    2.8215532975229469E+00   -2.6184788944030042E+00
H   -6.8873041754361894E+00    5.9944141416449681E-01   -2.7763699797179404E+00
H   -6.3393770590077327E+00   -1.0381586233283954E-01   -1.0416219965889177E+00
H   -7.5945220755676326E+00    1.7184427524967532E+00    2.3843463838451451E-01
H   -7.7005418731446600E+00    2.8967691589709172E+00   -1.3093031668550885E+00
H   -8.8653179843339913E+00    1.3140823581747378E+00   -1.1849480067160982E+00
H    4.3784288424202150E-01    8.4938459095245591E+00   -4.2530833668199488E+00
H   -8.4378285137018050E-01    7.3940231778571999E+00   -2.2753383080630445E+00
H   -2.1870801646308258E+00    5.0845884756677275E+00   -2.5424691691082186E+00
H    1.8453941967152070E+00    8.6423810990320469E+00   -6.1431425831472293E+00
H    2.3888417773492248E+00    6.3174775960482537E+00   -8.4549096615760675E+00
H    3.7770559466417679E+00    7.5101640893381232E+00   -7.7400287958339549E+00
H    2.7879808697560464E+00    4.7537478717505772E+00   -6.5807749686893375E+00
H    4.0683413530148362E+00    6.0284603928987197E+00   -5.7557207839342421E+00
H    2.1505029404246212E+00    6.1388883300506398E+00   -5.3882547803773351E+00
H    2.5326056959629137E+00    9.7753624575932125E+00   -8.3969565555384857E+00
H    1.5512442206907910E+00    8.4779335587589681E+00   -9.4538163716477204E+00
H    3.5041724372474957E-02    1.0148541903799224E+01   -7.0808325023681515E+00
H    2.5976422313184405E-01    1.1055976815823662E+01   -8.7993268262648865E+00
H   -7.3966999833366809E-01    9.3595791361900194E+00   -8.6956955829319167E+00
H    1.2734955552067442E+00    5.0376157178764300E+00   -1.4944334300600110E+01
H    1.6050534106512064E+00    7.0436305307122140E+00   -1.3243788261608378E+01
H    7.4254238217866386E-01    6.6951255581047695E+00   -1.0616329506253107E+01
H    1.2149278573968634E+00    1.1216273566836701E+00   -1.2645221389287666E+01
H    8.8256541822962464E-01    1.1953309606534439E-01   -1.5728360801623113E+01
H    1.8675033131122984E+00   -8.9247892120568073E-01   -1.4412004525904058E+01
H   -4.4817842737862829E-01   -8.2905840005083353E-01   -1.2758609737711105E+01
H   -1.3796822460309528E+00   -5.0944754630000803E-02   -1.4300196314764287E+01
H   -7.1038387056014873E-01   -1.8989659896174833E+00   -1.4371777739864175E+01
H    3.3744013839721978E+00    8.7361927184936861E-01   -1.4847670459785077E+01
H    2.3826214555316390E+00    2.7901007950304768E+00   -1.5013945979746406E+01
H    3.7548510553079626E+00    1.5167558045763780E+00   -1.2123410131484054E+01
H    4.4252378619938826E+00    3.0825128233301262E+00   -1.3190146612158911E+01
H    2.6200818142685236E+00    3.0063155883413328E+00   -1.2489374431781517E+01
H   -7.8236630666933840E+00    1.8706261656988097E+00   -1.4014116522669742E+01
H   -5.6985850027525595E+00    1.8434012813329457E+00   -1.5526378387989238E+01
H   -3.1797029598699180E+00    1.4040347991327735E+00   -1.4429901752695681E+01
H   -9.1234863255349055E+00    6.6079571084511812E-01   -1.2407481450192966E+01
H   -9.4477055345589029E+00    1.9165844537831359E-01   -9.1316212098953002E+00
H   -1.0692617742813789E+01   -5.1835417160260389E-01   -1.0426674264083379E+01
H   -7.9223186487499646E+00   -1.8559603736113528E+00   -9.5274387039410691E+00
H   -8.7145839011219284E+00   -2.2920257331497988E+00   -1.1257304581693129E+01
H   -7.4139860572517460E+00   -8.4172651333632098E-01   -1.1083851672509196E+01
H   -1.1315693589137577E+01    1.8682510276688262E+00   -1.1262298283608940E+01
H   -1.0253270472526001E+01    2.3502201133814062E+00   -9.7570862199621970E+00
H   -9.2232472831491155E+00    4.3812470112595614E+00   -1.0991894988955496E+01
H   -8.5911332910773286E+00    3.1622205461535655E+00   -1.2346217568629152E+01
H   -1.0338632055496307E+01    4.0294788789453397E+00   -1.2563245851958451E+01
     &END COORD
     &KIND Dy
       BASIS_SET SZV-MOLOPT-SR-GTH
       POTENTIAL GTH-PBE-q20
       &POTENTIAL
 4 6 0 10
  0.5102968700000000E+00 2  0.1767093508000000E+02 -0.8678777000000000E+00
 4
  0.4421234800000000E+00 2 -0.2715733840000000E+01  0.4017884260000000E+01
 -0.5187066270000000E+01
  0.4501723000000000E+00 2 -0.2773475350000000E+01  0.2201152450000000E+01
 -0.2604438700000000E+01
  0.4711651400000000E+00 1 -0.7522756100000000E+00
  0.2618074100000000E+00 1 -0.2424856414000000E+02
         # Potential name:  GTH-PBE-Q20  for symbol:  DY
         # Potential read from the potential filename: ../POTENTIAL
       &END POTENTIAL
     &END KIND
     &KIND Tb
       BASIS_SET SZV-MOLOPT-SR-GTH
       POTENTIAL GTH-PBE-q19
     &END KIND
     &KIND Ho
       BASIS_SET SZV-MOLOPT-SR-GTH
       POTENTIAL GTH-PBE-q21
     &END KIND
     &KIND Gd
       BASIS_SET SZV-MOLOPT-SR-GTH
       POTENTIAL GTH-PBE-q18
     &END KIND
     &KIND Lu
       BASIS_SET SZV-MOLOPT-SR-GTH
       POTENTIAL GTH-PBE-q25
     &END KIND
     &KIND Pm
       BASIS_SET SZV-MOLOPT-SR-GTH
       POTENTIAL GTH-PBE-q15
     &END KIND
     &KIND Tm
       BASIS_SET SZV-MOLOPT-SR-GTH
       POTENTIAL GTH-PBE-q23
     &END KIND
     &KIND F
       BASIS_SET SZV-GTH-PADE
       POTENTIAL GTH-PBE-q7
     &END KIND
     &KIND S
       BASIS_SET SZV-GTH-PADE
       POTENTIAL GTH-PBE-q6
     &END KIND
     &KIND Na
       BASIS_SET SZV-GTH-PADE
       POTENTIAL GTH-PBE-q9
     &END KIND
     &KIND B
       BASIS_SET SZV-GTH-PADE
       POTENTIAL GTH-PBE-q3
     &END KIND
     &KIND Cl
       BASIS_SET SZV-GTH-PADE
       POTENTIAL GTH-PBE-q7
     &END KIND
     &KIND H
       BASIS_SET SZV-GTH-PADE
       POTENTIAL GTH-PBE-q1
       &POTENTIAL
 1
  0.2000000000000000E+00 2 -0.4178900440000000E+01  0.7244633100000000E+00
 0
         # Potential name:  GTH-PBE-Q1  for symbol:  H
         # Potential read from the potential filename: ../POTENTIAL
       &END POTENTIAL
     &END KIND
     &KIND N
       BASIS_SET SZV-GTH-PADE
       POTENTIAL GTH-PBE-q5
       &POTENTIAL
 2 3
  0.2837905100000000E+00 2 -0.1241522559000000E+02  0.1868095920000000E+01
 2
  0.2554050000000000E+00 1  0.1363026257000000E+02
  0.2454945300000000E+00 0
         # Potential name:  GTH-PBE-Q5  for symbol:  N
         # Potential read from the potential filename: ../POTENTIAL
       &END POTENTIAL
     &END KIND
     &KIND O
       BASIS_SET SZV-GTH-PADE
       POTENTIAL GTH-PBE-q6
       &POTENTIAL
 2 4
  0.2445543000000000E+00 2 -0.1666721480000000E+02  0.2487311320000000E+01
 2
  0.2209559200000000E+00 1  0.1833745811000000E+02
  0.2113324700000000E+00 0
         # Potential name:  GTH-PBE-Q6  for symbol:  O
         # Potential read from the potential filename: ../POTENTIAL
       &END POTENTIAL
     &END KIND
     &KIND C
       BASIS_SET SZV-GTH-PADE
       POTENTIAL GTH-PBE-q4
       &POTENTIAL
 2 2
  0.3384712400000000E+00 2 -0.8803673979999999E+01  0.1339210850000000E+01
 2
  0.3025757500000000E+00 1  0.9622486650000001E+01
  0.2915069400000000E+00 0
         # Potential name:  GTH-PBE-Q4  for symbol:  C
         # Potential read from the potential filename: ../POTENTIAL
       &END POTENTIAL
     &END KIND
     &TOPOLOGY
       COORD_FILE_NAME ../../Dy_L9_L2.xyz
       COORD_FILE_FORMAT  XYZ
       NUMBER_OF_ATOMS  233
       MULTIPLE_UNIT_CELL  1 1 1
     &END TOPOLOGY
   &END SUBSYS
 &END FORCE_EVAL
