 # Version information for this restart file 
 # current date 2023-03-25 19:10:24.288
 # current working dir /mnt/scratch2/users/40265864/MSc_ML_MM/ln_replacements/xyz/Dy_L9_L2/geometry_optimisation/run-0
 # Program compiled at                              Mon 24 Oct 18:14:20 BST 2022
 # Program compiled on                          login1.pri.kelvin2.alces.network
 # Program compiled for                                                    local
 # Source code revision number                                         svn:17462
 &GLOBAL
   PRINT_LEVEL  LOW
   PROJECT_NAME molecule_name
   RUN_TYPE  GEO_OPT
 &END GLOBAL
 &MOTION
   &GEO_OPT
     OPTIMIZER  BFGS
     MAX_DR     5.0000000000000000E-01
     MAX_FORCE     5.0000000000000000E-01
     RMS_DR     5.0000000000000003E-02
     RMS_FORCE     5.0000000000000003E-02
     STEP_START_VAL  8
   &END GEO_OPT
 &END MOTION
 &FORCE_EVAL
   METHOD  QS
   &DFT
     BASIS_SET_FILE_NAME ../BASIS_MOLOPT_UCL
     BASIS_SET_FILE_NAME BASIS_SET
     POTENTIAL_FILE_NAME ../POTENTIAL
     UKS  T
     MULTIPLICITY  0
     CHARGE  3
     &SCF
       MAX_SCF  50
       EPS_SCF     5.0000000000000002E-05
       SCF_GUESS  RESTART
       &OT  T
         MINIMIZER  DIIS
         PRECONDITIONER  FULL_KINETIC
       &END OT
       &OUTER_SCF  T
         EPS_SCF     5.0000000000000002E-05
         MAX_SCF  20
       &END OUTER_SCF
     &END SCF
     &MGRID
       NGRIDS  2
       CUTOFF     4.0000000000000000E+02
       REL_CUTOFF     5.0000000000000000E+01
     &END MGRID
     &XC
       DENSITY_CUTOFF     1.0000000000000000E-10
       GRADIENT_CUTOFF     1.0000000000000000E-10
       TAU_CUTOFF     1.0000000000000000E-10
       &XC_FUNCTIONAL  NO_SHORTCUT
         &PBE  T
         &END PBE
       &END XC_FUNCTIONAL
     &END XC
   &END DFT
   &SUBSYS
     &CELL
       A     2.1000000000000000E+01    0.0000000000000000E+00    0.0000000000000000E+00
       B     0.0000000000000000E+00    2.1000000000000000E+01    0.0000000000000000E+00
       C     0.0000000000000000E+00    0.0000000000000000E+00    1.8000000000000000E+01
       PERIODIC  NONE
       MULTIPLE_UNIT_CELL  1 1 1
     &END CELL
     &COORD
C    9.0419927150326735E+00    9.4532811171803099E-01   -9.0478591457801532E+00
C    7.3731536829692876E+00    5.7887118225584322E-01   -8.9153395177561894E+00
O    6.5592413100850147E+00    1.2116200028268751E+00   -1.0102694316486476E+01
C    5.1043851776866056E+00    9.0515812480440705E-01   -1.0111872544716428E+01
C    4.0364983332531130E+00    1.8299404188895445E+00   -9.5855129089726940E+00
C    2.5939868141859277E+00    1.5608408904753290E+00   -9.7806635101739374E+00
C    2.1554375098885803E+00    3.6309560020135007E-01   -1.0535569260726351E+01
C    3.1712362753410490E+00   -6.1152102970591471E-01   -1.0913724053406014E+01
C    4.6221968388392947E+00   -3.9116716515460154E-01   -1.0645572416961812E+01
O    5.6724427558396728E+00   -1.3868402878927102E+00   -1.1057895759333965E+01
C    5.6967762263848059E+00   -1.0568819517505170E+00   -1.2618963319867854E+01
C    6.7499937207988028E+00   -2.0022794675236080E+00   -1.3388281946061271E+01
C    7.2123263211190247E-01    1.5211564829992788E-02   -1.0050608077615195E+01
N   -1.0309858012209148E-02   -1.0766040083377257E+00   -1.0656693794590382E+01
C   -1.3300760513529750E+00   -1.3534197872892142E+00   -1.0152181894269276E+01
N   -2.0622005029350956E+00   -7.9238329172403366E-01   -8.9890954533632073E+00
Dy   -1.6869708439340858E+00    1.3790069058719865E+00   -7.7613534496156991E+00
N    3.0832260364622277E-01    8.9622337118683293E-01   -8.9365930864492604E+00
C    1.4527981424098122E+00    1.8393676994182850E+00   -8.7267472698563431E+00
N    1.6944775761811952E+00    2.6919384008303195E+00   -7.5611949700537142E+00
C    9.7776054285409519E-01    2.3475180664758906E+00   -6.3067091950459178E+00
C    1.7073399979012569E+00    2.4121280967637047E+00   -4.9358277017120518E+00
C    3.1551046907285358E+00    2.5935338524733820E+00   -4.7317615858693181E+00
C    3.8259843733761092E+00    2.0205593688922954E+00   -3.5194656897228200E+00
O    5.2453314399758018E+00    2.3066609724190847E+00   -3.2338206307645314E+00
C    6.1592904716386041E+00    1.4704695986518102E+00   -4.1909224459217960E+00
C    7.6533721302424960E+00    1.9514343344131324E+00   -3.8316149893596121E+00
C    3.0939527105786206E+00    1.1014897261395769E+00   -2.6167152172557246E+00
C    1.6567530680748384E+00    8.0834571933856958E-01   -2.9350637841292189E+00
C    9.6773549707593354E-01    1.5083021106983061E+00   -4.0208046669508999E+00
C   -3.0213475188662675E-01    1.0277718982136268E+00   -4.7478145398806832E+00
N   -1.2559406766569454E+00    1.5708352301082210E-01   -4.1638534852379498E+00
C   -2.4076667738650857E+00   -2.7027009682848047E-01   -4.9126262256567488E+00
N   -2.6319109525665780E+00   -1.9004053225764397E-01   -6.3671274613287094E+00
C   -3.8633162693595375E+00   -9.2391845994796729E-01   -6.6234672502870344E+00
N   -4.2949424696587784E+00   -1.5169455997085823E+00   -7.8691629714876647E+00
C   -3.3321274708235511E+00   -1.5226319011396838E+00   -8.9169427357399567E+00
C   -3.4274050231766751E+00   -2.5796572257284680E+00   -1.0060069393132171E+01
C   -2.1516620464478420E+00   -2.4717986678006327E+00   -1.0798902683836296E+01
C   -1.6511196453370118E+00   -3.5732718410789923E+00   -1.1640836700461755E+01
C   -2.4434657841510363E+00   -4.8338537802802355E+00   -1.1731252172788414E+01
O   -1.8948823105189665E+00   -5.9960378966180699E+00   -1.2504505820691330E+01
C   -1.3238699823280142E+00   -7.0353927317309060E+00   -1.1446338816737596E+01
C   -8.4797887478873946E-01   -8.3608647414891522E+00   -1.2223669151384108E+01
C   -3.6372491857839804E+00   -4.9902252328985526E+00   -1.0892905917092056E+01
C   -4.1947283702651577E+00   -3.8441907783868574E+00   -1.0135537194984105E+01
O   -4.4317770735093793E+00   -6.2704765665047972E+00   -1.0931189762970632E+01
C   -5.3277808280432808E+00   -5.9997297967198575E+00   -1.2222666296442654E+01
C   -6.3865735135376722E+00   -7.1796258551245140E+00   -1.2417098505039904E+01
C   -4.5102578359271650E+00   -1.4015226251497566E+00   -5.3074441186310573E+00
C   -3.4944492443318040E+00   -1.1083499558438512E+00   -4.2766589092970033E+00
C   -3.3847091133750369E+00   -1.9272162726610087E+00   -3.0653308582464063E+00
C   -4.2810101532172897E+00   -3.0940182547309218E+00   -2.8578360703786259E+00
C   -5.2101488687121007E+00   -3.4351733475319230E+00   -3.9583932136259934E+00
C   -5.4027374546518097E+00   -2.5521633585206716E+00   -5.1132012344516937E+00
O   -6.1075824244642360E+00   -4.6458481151230187E+00   -3.8241590959706802E+00
C   -7.1720126739852477E+00   -4.0340320240977228E+00   -2.7899640616006165E+00
C   -8.3568346417934052E+00   -5.0760841067021767E+00   -2.4966512382797346E+00
O   -4.1105752608355060E+00   -4.0177228588711689E+00   -1.6865038960290988E+00
C   -3.3829472826363212E+00   -5.3043937940210544E+00   -2.2996380623821064E+00
C   -3.1064455721590050E+00   -6.3875935081367006E+00   -1.1328961861264353E+00
N   -2.4704710401346899E-01    1.5666760705029434E+00   -6.1369877242851389E+00
O    3.8686999217225684E+00    4.7587499348758905E-01   -1.4535562909602071E+00
C    3.1678553490259911E+00    1.1896387664587551E+00   -1.3686093686179379E-01
C    3.7888252948996510E+00    6.4613544782001675E-01    1.3271594919279466E+00
N   -4.1524804743273425E+00    1.7601910714982669E+00   -7.0123171930650239E+00
C   -5.4550675205062991E+00    1.2305134925305667E+00   -7.5072681331255007E+00
N   -5.8184622384671103E+00    9.4965032785696335E-01   -8.8995932716157711E+00
C   -4.8617236782150277E+00    9.2176877859418682E-01   -1.0016432594616239E+01
N   -3.3625570299250906E+00    1.1605201747701588E+00   -9.9886462168946952E+00
C   -2.9394333570537863E+00    1.1123951898450319E+00   -1.1394576511383812E+01
N   -1.5850957432746644E+00    1.4555995562949184E+00   -1.1991874462035756E+01
C   -8.0665128674729292E-01    2.4076740615805239E+00   -1.1180113949625161E+01
N   -1.0989388321256968E+00    2.8838028442789763E+00   -9.7856967371437698E+00
C   -3.1914154668290601E-01    4.1142420130481838E+00   -9.5928809788846312E+00
N   -2.4106416855977286E-01    4.9684968945620289E+00   -8.4110055958133483E+00
C   -9.6534434715023965E-01    4.6210794695287634E+00   -7.1830648674522752E+00
N   -1.9435370112005490E+00    3.5461737646911549E+00   -6.8704662674752317E+00
C   -2.3031196220167498E+00    3.5881998676009634E+00   -5.4375510458955132E+00
N   -3.3222824641417308E+00    2.7863601507794118E+00   -4.7945938768604393E+00
C   -4.3046940850398823E+00    2.0803547828963649E+00   -5.5983144734992702E+00
C   -5.7273220619597618E+00    1.6630134127638811E+00   -5.0809243903736272E+00
C   -6.4543321134588316E+00    1.1885125957644649E+00   -6.3093413875709601E+00
C   -7.9335039343290550E+00    1.2387069641391655E+00   -6.3541892841505039E+00
C   -8.7268808713700228E+00    1.7376092924734940E+00   -5.1931858482634947E+00
C   -7.9986504079810112E+00    2.2197771226389249E+00   -4.0093191419325915E+00
C   -6.5029049525896108E+00    2.2732270855357641E+00   -3.9714703379391856E+00
O   -5.8581449440825493E+00    2.9830503477645176E+00   -2.8049715716082884E+00
C   -5.3106538414332158E+00    1.7856645423464177E+00   -1.8050170283561551E+00
C   -4.0640738047485039E+00    1.0075230804905366E+00   -2.4012238269089790E+00
C   -2.6912693058021828E+00    1.7550557808897413E+00   -2.1195036046558329E+00
C   -6.5905455898847691E+00    8.9401143941798866E-01   -1.6293734549421779E+00
C   -7.7601241573718136E+00    1.7458465050663374E+00   -9.5641018690580204E-01
C   -1.4238961117992852E+00    4.7209296773026193E+00   -4.7356010572168712E+00
C   -6.8486264213176673E-01    5.3734750608309225E+00   -5.8586435357936111E+00
C   -2.8913384129893072E-02    6.7285614730032037E+00   -5.7355614966245660E+00
C    1.2824623079286715E-02    7.3889842061094653E+00   -4.3835756177090177E+00
C   -7.2647867750161532E-01    6.7544025914619858E+00   -3.2786892158688667E+00
C   -1.4437767755654181E+00    5.4385995363976782E+00   -3.4156209900087924E+00
O    2.6286297793270152E-01    7.3474382844272466E+00   -7.0223459518972904E+00
C    1.6767881706489243E+00    8.0835777942057199E+00   -7.1837648237902263E+00
C    2.7530986100230597E+00    6.9119417240093020E+00   -7.4567108021135011E+00
C    2.9346747786543479E+00    5.8878869765620356E+00   -6.2389179267756543E+00
C    1.5451750997240028E+00    9.1137680788894588E+00   -8.4179188067420831E+00
C    2.1263884107734418E-01    9.9795940252458522E+00   -8.2687136458537225E+00
C    5.2201681200636607E-01    4.4277053504730794E+00   -1.0883194639854295E+01
C    3.2499527298080738E-01    3.2952201216114934E+00   -1.1840886291550865E+01
C    6.1839823998004007E-01    3.5012084348095214E+00   -1.3307237647999816E+01
C    1.1286686058226783E+00    4.8434130592244511E+00   -1.3774250695158891E+01
C    1.2783787308993313E+00    5.9580370033628043E+00   -1.2823349066485539E+01
C    9.6382782492164776E-01    5.7506162439718720E+00   -1.1368711007218939E+01
O    4.3201402375093290E-01    2.4395292078912636E+00   -1.4324762317870080E+01
C    1.4007061251914501E+00    1.1514427860370711E+00   -1.3937782257938013E+01
C    8.9653563269160652E-01   -2.1948691476057011E-01   -1.4580479549068457E+01
C   -4.7470661118775959E-01   -7.9279896473699973E-01   -1.3962027556764985E+01
C    2.8380928002407586E+00    1.7131053659514928E+00   -1.4571665440421377E+01
C    3.4958655730217081E+00    2.2382437188473778E+00   -1.3101327018880221E+01
C   -4.1478315028146158E+00    8.4036668061210607E-01   -1.2380076184427081E+01
C   -5.3572976475921337E+00    7.8174745437914817E-01   -1.1490334680039979E+01
C   -6.6996595167196729E+00    1.1838246803993209E+00   -1.2038227704422036E+01
C   -6.8066944201967789E+00    1.4908092270696711E+00   -1.3529133128442355E+01
C   -5.6004212469214467E+00    1.5034161049889605E+00   -1.4391581803880230E+01
C   -4.2400007731368801E+00    1.2094939690365154E+00   -1.3821677222145459E+01
O   -7.7261030062879668E+00    1.5524912201405900E+00   -1.1018532437786629E+01
C   -9.2680512792991401E+00    1.0096971119492530E+00   -1.1228879204697789E+01
C   -9.5898524660262883E+00   -2.1167604519955766E-01   -1.0205383419028994E+01
C   -8.4273297584262625E+00   -1.3308971151974878E+00   -1.0522294736788322E+01
C   -1.0278130606614846E+01    2.2305893811970465E+00   -1.0928729594709548E+01
C   -9.6406276226982186E+00    3.5002123151790396E+00   -1.1733626672784093E+01
H    9.3294197593766235E+00    1.1137831081855385E+00   -7.8467918497348981E+00
H    1.0002460434108036E+01    2.7419814948366628E-01   -9.6355531506179961E+00
H    9.0444127751321695E+00    2.0888595605354934E+00   -9.5091521121237683E+00
H    7.0605936891364109E+00   -6.2218106869269518E-01   -8.8217379747823035E+00
H    6.8138137255154128E+00    1.0914149593051357E+00   -7.9325677999720181E+00
H    4.3793911133006649E+00    2.6777334138954738E+00   -8.8291750935239719E+00
H    2.8967048970895912E+00   -1.7663366150492301E+00   -1.1171977075740195E+01
H    4.5337607141706933E+00   -1.2301132420574965E+00   -1.2925397221172773E+01
H    5.9315387819233969E+00    1.3640960365457189E-01   -1.2730423181271510E+01
H    7.4148639934506857E+00   -2.5286558043633200E+00   -1.2529052234255413E+01
H    6.2024040718823787E+00   -2.8520287545489436E+00   -1.4045186492327847E+01
H    7.5000947473575401E+00   -1.4083346204653346E+00   -1.4132584101719132E+01
H    3.8147529440774881E+00    3.1949652535932449E+00   -5.5215180107497597E+00
H    5.9611657356612264E+00    2.9513523352788495E-01   -3.9165254249611681E+00
H    5.7806272693562759E+00    1.6921872140519323E+00   -5.3177293724506685E+00
H    7.7083262938688550E+00    1.9406339069392453E+00   -2.6245540107726812E+00
H    8.5674649484631740E+00    1.2757924098705902E+00   -4.2445820213693590E+00
H    7.7788492698129064E+00    3.0846317987563383E+00   -4.2104143594662649E+00
H    1.1059996568609862E+00   -1.4027906300151369E-01   -2.4353469958457397E+00
H   -5.5895481359024701E-01   -3.5842861481932053E+00   -1.2067962272369254E+01
H   -4.1909643082158249E-01   -6.3914150870258313E+00   -1.0938385310203637E+01
H   -2.2516776113549137E+00   -7.2045655664891415E+00   -1.0668387973499806E+01
H   -5.1863397646588827E-01   -9.2863144813296259E+00   -1.1499205486632386E+01
H   -1.7746827606674800E+00   -8.7598872427649983E+00   -1.2894073911913585E+01
H    1.0206137471847460E-01   -8.1260064485811210E+00   -1.2925276985346363E+01
H   -5.1403276346914204E+00   -4.0917017483347227E+00   -9.4254745615637230E+00
H   -5.8110507134722678E+00   -4.9256429026913375E+00   -1.1904411827889962E+01
H   -4.5176546147831838E+00   -5.8261165066353344E+00   -1.3123408813541714E+01
H   -6.7786128553585785E+00   -7.4830311841975172E+00   -1.1314183797666720E+01
H   -7.3660699892807857E+00   -6.8612213863592890E+00   -1.3068962249381123E+01
H   -5.8986979384850677E+00   -8.1360046021158325E+00   -1.2959645374106868E+01
H   -2.4449897518625447E+00   -1.7844716305812904E+00   -2.3823745251832666E+00
H   -6.1419324876323538E+00   -3.0198644926379021E+00   -5.9489036932537322E+00
H   -6.4981263764813511E+00   -3.7611520638406817E+00   -1.8086430246003127E+00
H   -7.4927592751744303E+00   -3.0277956561387156E+00   -3.3793336568258914E+00
H   -8.6224679788356671E+00   -5.2397339818988549E+00   -1.3229631748081201E+00
H   -9.3863376601157675E+00   -4.7243105526031419E+00   -3.0285759361836635E+00
H   -8.0383845102977229E+00   -6.1558923718417287E+00   -2.9541824868825537E+00
H   -4.1647266797702978E+00   -5.7017806848607462E+00   -3.1503741342913005E+00
H   -2.3608564907853027E+00   -4.8685512123943075E+00   -2.8038786327821152E+00
H   -3.0447781846661388E+00   -7.5410861734545911E+00   -1.5235191733921187E+00
H   -2.0790391596571909E+00   -6.1826276747014424E+00   -5.3865048934118498E-01
H   -4.0407411990603830E+00   -6.3337878459276196E+00   -3.6562377864433077E-01
H    3.4475080348687577E+00    2.3502286560008789E+00   -3.7164517059700736E-01
H    1.9874313943998068E+00    9.1498904563620875E-01   -3.4101985790256556E-01
H    3.6434429194324314E+00   -5.8813557771773728E-01    1.4108598040994642E+00
H    4.9819417747965291E+00    9.4871725257044937E-01    1.4352435679003741E+00
H    3.0961407258360820E+00    1.4106957825037543E+00    2.2001057015982450E+00
H   -8.4639281847500669E+00    1.0828610849164384E+00   -7.3963509249190773E+00
H   -9.9380571618649203E+00    1.8652976877275518E+00   -5.2200715037660066E+00
H   -8.6662140257011959E+00    2.6476259548319359E+00   -3.0986538566505484E+00
H   -4.9747208632995790E+00    2.3499026543396391E+00   -7.9865569721237872E-01
H   -4.0743659811546911E+00   -1.2650825622167175E-01   -1.9548516621519392E+00
H   -4.2712502277537761E+00    8.7414837479027374E-01   -3.5650922902333382E+00
H   -2.5495170861618175E+00    1.8357575060366540E+00   -9.3064160129154649E-01
H   -1.7433455594473779E+00    1.1701447585997100E+00   -2.5771069276582024E+00
H   -2.7489627981054467E+00    2.8178082264697775E+00   -2.6575164790964108E+00
H   -6.8706495734999633E+00    5.9736768623784364E-01   -2.7547333080565970E+00
H   -6.3826301477880074E+00   -1.3874974723330652E-01   -1.0356507840856748E+00
H   -7.6048516508055002E+00    1.7414779653468528E+00    2.3237778589082231E-01
H   -7.6813160356906458E+00    2.8833421399805053E+00   -1.3464120540460056E+00
H   -8.8570823250395758E+00    1.3137413748917079E+00   -1.1907729872489519E+00
H    4.3150611642105102E-01    8.5222769054166498E+00   -4.2004484339838752E+00
H   -8.5216148747348974E-01    7.4185598922087310E+00   -2.2478208783889930E+00
H   -2.1325785713134593E+00    5.1433940997354526E+00   -2.4618462604467442E+00
H    1.9158712218231708E+00    8.7014653337734877E+00   -6.1562030479283640E+00
H    2.3592047069366631E+00    6.3305602731125461E+00   -8.4378718239693313E+00
H    3.7916017948074838E+00    7.4808079229484781E+00   -7.7307646495902995E+00
H    2.7510196407778555E+00    4.7549604671596004E+00   -6.5913435978280734E+00
H    4.0329008004529454E+00    5.9971095964667338E+00   -5.7461602910141210E+00
H    2.1215016404476086E+00    6.1392676731028839E+00   -5.3968056709541576E+00
H    2.5355955313036027E+00    9.8044153919861401E+00   -8.4030712617122560E+00
H    1.5653164645016222E+00    8.4924536301705587E+00   -9.4457267549280619E+00
H    6.4380020135220539E-02    1.0168144314606650E+01   -7.0916710977882822E+00
H    2.4940318337281961E-01    1.1058377060694998E+01   -8.8124957443024972E+00
H   -7.2437790019632198E-01    9.3590860939556126E+00   -8.6867080905474072E+00
H    1.2868174290920300E+00    5.0897909405693822E+00   -1.4972803006111864E+01
H    1.6037095158724242E+00    7.0616174603060093E+00   -1.3278380641623109E+01
H    7.8251506785618830E-01    6.7177589406684151E+00   -1.0691169751368866E+01
H    1.2553047114192699E+00    1.1329092918429997E+00   -1.2737306159517377E+01
H    8.9971875144632818E-01    1.8948277873123833E-02   -1.5770349022796937E+01
H    1.8670552444056379E+00   -9.2881033345651620E-01   -1.4407507113421508E+01
H   -4.0991804396596138E-01   -8.6788625397448360E-01   -1.2761756362258552E+01
H   -1.3669443408438413E+00   -5.7794456086358796E-02   -1.4274238473759645E+01
H   -7.4009955963843355E-01   -1.9068796356168820E+00   -1.4364446377061679E+01
H    3.4372349697948530E+00    7.5852461137929561E-01   -1.4803476619726281E+01
H    2.4367888956648125E+00    2.7632512530270854E+00   -1.5096077664433556E+01
H    3.7185027465135216E+00    1.4724384244174582E+00   -1.2180423090802735E+01
H    4.4457803981773223E+00    3.0263005267366108E+00   -1.3180645657250677E+01
H    2.6076697736940053E+00    2.9343683061823076E+00   -1.2600399535883215E+01
H   -7.8382088223451145E+00    1.9120068201204505E+00   -1.4058775416709071E+01
H   -5.7226560148398420E+00    1.8743637432927900E+00   -1.5561733579912794E+01
H   -3.2516249059006563E+00    1.3804664617394689E+00   -1.4499126710095110E+01
H   -9.2373525821223552E+00    6.4848229092903964E-01   -1.2390805958222670E+01
H   -9.4857341987763988E+00    2.1982297527347716E-01   -9.0877913983084788E+00
H   -1.0790907345334562E+01   -4.8150245463044139E-01   -1.0333831271543344E+01
H   -7.9595320136073724E+00   -1.8472423626049868E+00   -9.5290109869893005E+00
H   -8.7327321855352498E+00   -2.2560731998845562E+00   -1.1254587499397010E+01
H   -7.4782339719510542E+00   -7.9542818585455610E-01   -1.1043746471511902E+01
H   -1.1395298844919585E+01    1.8765352341361692E+00   -1.1224045601355709E+01
H   -1.0342525334638854E+01    2.3353405744221640E+00   -9.7233585972157357E+00
H   -9.2534321146104404E+00    4.3656787352634554E+00   -1.0987451277795387E+01
H   -8.6440114887461679E+00    3.1160146821290349E+00   -1.2306769876790105E+01
H   -1.0351393606258750E+01    4.0327553815134936E+00   -1.2561758913052895E+01
     &END COORD
     &KIND Dy
       BASIS_SET SZV-MOLOPT-SR-GTH
       POTENTIAL GTH-PBE-q20
       &POTENTIAL
 4 6 0 10
  0.5102968700000000E+00 2  0.1767093508000000E+02 -0.8678777000000000E+00
 4
  0.4421234800000000E+00 2 -0.2715733840000000E+01  0.4017884260000000E+01
 -0.5187066270000000E+01
  0.4501723000000000E+00 2 -0.2773475350000000E+01  0.2201152450000000E+01
 -0.2604438700000000E+01
  0.4711651400000000E+00 1 -0.7522756100000000E+00
  0.2618074100000000E+00 1 -0.2424856414000000E+02
         # Potential name:  GTH-PBE-Q20  for symbol:  DY
         # Potential read from the potential filename: ../POTENTIAL
       &END POTENTIAL
     &END KIND
     &KIND Tb
       BASIS_SET SZV-MOLOPT-SR-GTH
       POTENTIAL GTH-PBE-q19
     &END KIND
     &KIND Ho
       BASIS_SET SZV-MOLOPT-SR-GTH
       POTENTIAL GTH-PBE-q21
     &END KIND
     &KIND Gd
       BASIS_SET SZV-MOLOPT-SR-GTH
       POTENTIAL GTH-PBE-q18
     &END KIND
     &KIND Lu
       BASIS_SET SZV-MOLOPT-SR-GTH
       POTENTIAL GTH-PBE-q25
     &END KIND
     &KIND Pm
       BASIS_SET SZV-MOLOPT-SR-GTH
       POTENTIAL GTH-PBE-q15
     &END KIND
     &KIND Tm
       BASIS_SET SZV-MOLOPT-SR-GTH
       POTENTIAL GTH-PBE-q23
     &END KIND
     &KIND F
       BASIS_SET SZV-GTH-PADE
       POTENTIAL GTH-PBE-q7
     &END KIND
     &KIND S
       BASIS_SET SZV-GTH-PADE
       POTENTIAL GTH-PBE-q6
     &END KIND
     &KIND Na
       BASIS_SET SZV-GTH-PADE
       POTENTIAL GTH-PBE-q9
     &END KIND
     &KIND B
       BASIS_SET SZV-GTH-PADE
       POTENTIAL GTH-PBE-q3
     &END KIND
     &KIND Cl
       BASIS_SET SZV-GTH-PADE
       POTENTIAL GTH-PBE-q7
     &END KIND
     &KIND H
       BASIS_SET SZV-GTH-PADE
       POTENTIAL GTH-PBE-q1
       &POTENTIAL
 1
  0.2000000000000000E+00 2 -0.4178900440000000E+01  0.7244633100000000E+00
 0
         # Potential name:  GTH-PBE-Q1  for symbol:  H
         # Potential read from the potential filename: ../POTENTIAL
       &END POTENTIAL
     &END KIND
     &KIND N
       BASIS_SET SZV-GTH-PADE
       POTENTIAL GTH-PBE-q5
       &POTENTIAL
 2 3
  0.2837905100000000E+00 2 -0.1241522559000000E+02  0.1868095920000000E+01
 2
  0.2554050000000000E+00 1  0.1363026257000000E+02
  0.2454945300000000E+00 0
         # Potential name:  GTH-PBE-Q5  for symbol:  N
         # Potential read from the potential filename: ../POTENTIAL
       &END POTENTIAL
     &END KIND
     &KIND O
       BASIS_SET SZV-GTH-PADE
       POTENTIAL GTH-PBE-q6
       &POTENTIAL
 2 4
  0.2445543000000000E+00 2 -0.1666721480000000E+02  0.2487311320000000E+01
 2
  0.2209559200000000E+00 1  0.1833745811000000E+02
  0.2113324700000000E+00 0
         # Potential name:  GTH-PBE-Q6  for symbol:  O
         # Potential read from the potential filename: ../POTENTIAL
       &END POTENTIAL
     &END KIND
     &KIND C
       BASIS_SET SZV-GTH-PADE
       POTENTIAL GTH-PBE-q4
       &POTENTIAL
 2 2
  0.3384712400000000E+00 2 -0.8803673979999999E+01  0.1339210850000000E+01
 2
  0.3025757500000000E+00 1  0.9622486650000001E+01
  0.2915069400000000E+00 0
         # Potential name:  GTH-PBE-Q4  for symbol:  C
         # Potential read from the potential filename: ../POTENTIAL
       &END POTENTIAL
     &END KIND
     &TOPOLOGY
       COORD_FILE_NAME ../../Dy_L9_L2.xyz
       COORD_FILE_FORMAT  XYZ
       NUMBER_OF_ATOMS  233
       MULTIPLE_UNIT_CELL  1 1 1
     &END TOPOLOGY
   &END SUBSYS
 &END FORCE_EVAL
