 # Version information for this restart file 
 # current date 2023-03-25 19:10:44.737
 # current working dir /mnt/scratch2/users/40265864/MSc_ML_MM/ln_replacements/xyz/Dy_L9_L2/geometry_optimisation/run-0
 # Program compiled at                              Mon 24 Oct 18:14:20 BST 2022
 # Program compiled on                          login1.pri.kelvin2.alces.network
 # Program compiled for                                                    local
 # Source code revision number                                         svn:17462
 &GLOBAL
   PRINT_LEVEL  LOW
   PROJECT_NAME molecule_name
   RUN_TYPE  GEO_OPT
 &END GLOBAL
 &MOTION
   &GEO_OPT
     OPTIMIZER  BFGS
     MAX_DR     5.0000000000000000E-01
     MAX_FORCE     5.0000000000000000E-01
     RMS_DR     5.0000000000000003E-02
     RMS_FORCE     5.0000000000000003E-02
     STEP_START_VAL  9
   &END GEO_OPT
 &END MOTION
 &FORCE_EVAL
   METHOD  QS
   &DFT
     BASIS_SET_FILE_NAME ../BASIS_MOLOPT_UCL
     BASIS_SET_FILE_NAME BASIS_SET
     POTENTIAL_FILE_NAME ../POTENTIAL
     UKS  T
     MULTIPLICITY  0
     CHARGE  3
     &SCF
       MAX_SCF  50
       EPS_SCF     5.0000000000000002E-05
       SCF_GUESS  RESTART
       &OT  T
         MINIMIZER  DIIS
         PRECONDITIONER  FULL_KINETIC
       &END OT
       &OUTER_SCF  T
         EPS_SCF     5.0000000000000002E-05
         MAX_SCF  20
       &END OUTER_SCF
     &END SCF
     &MGRID
       NGRIDS  2
       CUTOFF     4.0000000000000000E+02
       REL_CUTOFF     5.0000000000000000E+01
     &END MGRID
     &XC
       DENSITY_CUTOFF     1.0000000000000000E-10
       GRADIENT_CUTOFF     1.0000000000000000E-10
       TAU_CUTOFF     1.0000000000000000E-10
       &XC_FUNCTIONAL  NO_SHORTCUT
         &PBE  T
         &END PBE
       &END XC_FUNCTIONAL
     &END XC
   &END DFT
   &SUBSYS
     &CELL
       A     2.1000000000000000E+01    0.0000000000000000E+00    0.0000000000000000E+00
       B     0.0000000000000000E+00    2.1000000000000000E+01    0.0000000000000000E+00
       C     0.0000000000000000E+00    0.0000000000000000E+00    1.8000000000000000E+01
       PERIODIC  NONE
       MULTIPLE_UNIT_CELL  1 1 1
     &END CELL
     &COORD
C    9.1550820940718420E+00    9.0812970344023425E-01   -9.1460681321260964E+00
C    7.4280766553843538E+00    5.8102532209677116E-01   -8.9473308453815328E+00
O    6.5723368940470799E+00    1.2322703627600813E+00   -1.0104410479678885E+01
C    5.1138511005509395E+00    9.1235541766646300E-01   -1.0118151506835368E+01
C    4.0446420859577792E+00    1.8368252604393165E+00   -9.5931875286999144E+00
C    2.6020665094041910E+00    1.5598627562767264E+00   -9.7771641284475201E+00
C    2.1596111136916907E+00    3.6086067942320110E-01   -1.0531155559064080E+01
C    3.1765583216019837E+00   -6.0926741943995855E-01   -1.0918138065398416E+01
C    4.6276202595406080E+00   -3.8533131670139720E-01   -1.0650860575766057E+01
O    5.6826746034747417E+00   -1.3762944759620499E+00   -1.1055145449363433E+01
C    5.6971677646864860E+00   -1.0594584051613667E+00   -1.2622405022548994E+01
C    6.7509923091153929E+00   -2.0030534124846553E+00   -1.3390876405007669E+01
C    7.2051870551497132E-01    3.1871045158145664E-02   -1.0050932031836350E+01
N   -1.5154156302664597E-02   -1.0619675580231189E+00   -1.0649821615393206E+01
C   -1.3364463190145712E+00   -1.3468053349990758E+00   -1.0160822683951853E+01
N   -2.0594738735316276E+00   -7.9107552544383974E-01   -8.9875286773162024E+00
Dy   -1.7387340538774072E+00    1.3157682771345072E+00   -7.6949938174010013E+00
N    3.0551885597338968E-01    9.1204281022053646E-01   -8.9361817103777774E+00
C    1.4611376673260192E+00    1.8418940078866384E+00   -8.7268809686239628E+00
N    1.7115815761465945E+00    2.6827603630707837E+00   -7.5538054260456367E+00
C    9.7798087980048531E-01    2.3510734373218320E+00   -6.3009350407793869E+00
C    1.7160712077270042E+00    2.4054538208900578E+00   -4.9373599115029219E+00
C    3.1587745562632796E+00    2.6000146166780014E+00   -4.7218582904638122E+00
C    3.8308846549381372E+00    2.0233374489548517E+00   -3.5087141498203751E+00
O    5.2534238642815874E+00    2.2933769597837754E+00   -3.2079465074537046E+00
C    6.1653837992668397E+00    1.4736308773379458E+00   -4.1874517552530470E+00
C    7.6604546415763748E+00    1.9511223625355385E+00   -3.8338939465772461E+00
C    3.0950149864177683E+00    1.1135632052616928E+00   -2.5877564661425536E+00
C    1.6591631586883135E+00    8.1603339861442470E-01   -2.9240615652289499E+00
C    9.6980253283567186E-01    1.5085682709408685E+00   -4.0177177490086935E+00
C   -2.9799945713359144E-01    1.0393325766441721E+00   -4.7608894397573067E+00
N   -1.2519425921191873E+00    1.6910385951172158E-01   -4.1711796725771766E+00
C   -2.4087143544167637E+00   -2.6748811998868566E-01   -4.9070168019948577E+00
N   -2.6358064787685147E+00   -1.9413311642915229E-01   -6.3567967112685615E+00
C   -3.8699150254309127E+00   -9.2758550630356340E-01   -6.6201404782158333E+00
N   -4.2896704338245755E+00   -1.5248854104409384E+00   -7.8677404855415283E+00
C   -3.3307608338813726E+00   -1.5252440838169543E+00   -8.9240483905985784E+00
C   -3.4239567738239884E+00   -2.5873493688615752E+00   -1.0060002476307076E+01
C   -2.1507375943184810E+00   -2.4742031101364992E+00   -1.0803286838741061E+01
C   -1.6505228030339125E+00   -3.5760097620584537E+00   -1.1645919044641051E+01
C   -2.4468921177682530E+00   -4.8286556382703889E+00   -1.1734725987187668E+01
O   -1.9009645427988167E+00   -5.9940447702344013E+00   -1.2509106808213229E+01
C   -1.3264090957725085E+00   -7.0365704004156475E+00   -1.1453510768479294E+01
C   -8.4855059125069032E-01   -8.3650785829277456E+00   -1.2223673402681841E+01
C   -3.6429066533119521E+00   -4.9908418792499951E+00   -1.0898076694642951E+01
C   -4.1942784113921130E+00   -3.8476130151462962E+00   -1.0134190352482086E+01
O   -4.4216258483977775E+00   -6.2849658752294957E+00   -1.0932814315074982E+01
C   -5.3268809354896973E+00   -6.0035855433221030E+00   -1.2221490196459545E+01
C   -6.3886916645203078E+00   -7.1814536845465531E+00   -1.2418664146396138E+01
C   -4.5088222658557173E+00   -1.4093032129890788E+00   -5.3045221335664934E+00
C   -3.4930210230640939E+00   -1.1141824022510514E+00   -4.2747423285893422E+00
C   -3.3874296661871761E+00   -1.9270718983474546E+00   -3.0614752978016115E+00
C   -4.2863803882359397E+00   -3.0877426535575565E+00   -2.8633851826499113E+00
C   -5.2215826923982531E+00   -3.4386403639132279E+00   -3.9538761977215637E+00
C   -5.4040606212178721E+00   -2.5582530705015842E+00   -5.1115524694552308E+00
O   -6.1082655745312602E+00   -4.6660480456570461E+00   -3.8261082484223996E+00
C   -7.1713030761137038E+00   -4.0449803274011575E+00   -2.7889965165414363E+00
C   -8.3611688919860185E+00   -5.0798060891270111E+00   -2.4960596945471862E+00
O   -4.0698742697180714E+00   -4.0046777560644680E+00   -1.6930918372050641E+00
C   -3.3838247258569361E+00   -5.3133570645057420E+00   -2.2964693690347384E+00
C   -3.1098847637151823E+00   -6.3906633321817372E+00   -1.1293306931781135E+00
N   -2.5189039943290820E-01    1.5624885480070407E+00   -6.1594722885299094E+00
O    3.8886975655374245E+00    5.1564271278423923E-01   -1.4194895048493272E+00
C    3.1458387848709624E+00    1.2036535265443469E+00   -8.6056747961547844E-02
C    3.7092269931551285E+00    7.2036561739892169E-01    1.4836335373846250E+00
N   -4.1685311362912003E+00    1.7579001192315344E+00   -7.0067301859501789E+00
C   -5.4661302624159500E+00    1.2274106554379127E+00   -7.5088102005377797E+00
N   -5.8177085091132623E+00    9.4043000414810574E-01   -8.9025077087545803E+00
C   -4.8628895376043548E+00    9.1543861272808491E-01   -1.0021737887514718E+01
N   -3.3646238485471471E+00    1.1665599997484632E+00   -9.9954660675223899E+00
C   -2.9472304754644090E+00    1.1072793796021367E+00   -1.1404831031459000E+01
N   -1.5940291075872060E+00    1.4692834532489147E+00   -1.1995485371709400E+01
C   -8.0066286311825663E-01    2.4096150652757746E+00   -1.1179300571508469E+01
N   -1.1000282072986078E+00    2.8771296236971708E+00   -9.7785116436777173E+00
C   -3.0919384676011785E-01    4.1058396998650579E+00   -9.5924615080462292E+00
N   -2.4569313476357998E-01    4.9629831273998484E+00   -8.4078803100257247E+00
C   -9.6132108181735476E-01    4.6140136089972525E+00   -7.1757173439268742E+00
N   -1.9439841917895126E+00    3.5361383068484833E+00   -6.8771942191350854E+00
C   -2.2967421420425373E+00    3.5877509629836117E+00   -5.4394272140861357E+00
N   -3.3266912177841488E+00    2.8017890400456129E+00   -4.8014813869517416E+00
C   -4.3061026342862085E+00    2.0817559779365737E+00   -5.5928990174445898E+00
C   -5.7308744366805575E+00    1.6707549874723551E+00   -5.0841431432349573E+00
C   -6.4628995462374910E+00    1.1957093097648552E+00   -6.3090663440945720E+00
C   -7.9410258654137218E+00    1.2365283636702749E+00   -6.3600358381694795E+00
C   -8.7249414663015070E+00    1.7313385566211190E+00   -5.1907190495540929E+00
C   -7.9987268123236213E+00    2.2207551377176191E+00   -4.0062103536754776E+00
C   -6.5018670241794876E+00    2.2736669341381548E+00   -3.9674313303713884E+00
O   -5.8352533548982377E+00    2.9670893531416089E+00   -2.8095834238341424E+00
C   -5.3098563693644802E+00    1.7776471199742419E+00   -1.8042263504971197E+00
C   -4.0649819344079674E+00    1.0074097274922829E+00   -2.4038738516367064E+00
C   -2.6950384426746163E+00    1.7568662774793840E+00   -2.1211316079389979E+00
C   -6.5938584216437883E+00    8.8826045685508503E-01   -1.6246911937679569E+00
C   -7.7610385700640050E+00    1.7444882697514028E+00   -9.5581683462085387E-01
C   -1.4280155732356397E+00    4.7290118301188100E+00   -4.7362501432492268E+00
C   -6.8097349422179299E-01    5.3765459014964874E+00   -5.8568915468669589E+00
C   -2.0271668736888567E-02    6.7317251989534430E+00   -5.7369774052645024E+00
C    1.3933308575687286E-02    7.3898831558266336E+00   -4.3821449499276390E+00
C   -7.2502050569953369E-01    6.7561838211095626E+00   -3.2738227767290873E+00
C   -1.4452425622034080E+00    5.4405214207523507E+00   -3.4120050956565593E+00
O    2.5143003829343008E-01    7.3783393832800641E+00   -7.0216459440787027E+00
C    1.6806745112385577E+00    8.0856205768067788E+00   -7.1746451738442527E+00
C    2.7511028721544868E+00    6.9145019319323788E+00   -7.4582089417733757E+00
C    2.9295984421327845E+00    5.8888228558754250E+00   -6.2410316917276054E+00
C    1.5469928499056320E+00    9.1094035694505617E+00   -8.4145349700563088E+00
C    2.1677919083602426E-01    9.9796743285886009E+00   -8.2687898322353224E+00
C    5.2554407761363942E-01    4.4294508206030825E+00   -1.0885136122278340E+01
C    3.1728284248973010E-01    3.2996319587517413E+00   -1.1845201542099622E+01
C    6.1672320904918532E-01    3.5021605990077749E+00   -1.3314886626070299E+01
C    1.1370362349397303E+00    4.8418817052377428E+00   -1.3779030353585110E+01
C    1.2802366301738939E+00    5.9589719337336957E+00   -1.2826852002279148E+01
C    9.7040819383798993E-01    5.7537940102788188E+00   -1.1368625853047822E+01
O    4.5302948976300700E-01    2.4368466325084381E+00   -1.4330194388191746E+01
C    1.4401223526966100E+00    1.1486862311360757E+00   -1.3990771157164231E+01
C    8.9480815450955598E-01   -2.2824354993850401E-01   -1.4594318646323094E+01
C   -4.7294142304037728E-01   -7.9576941367967358E-01   -1.3962295934209969E+01
C    2.8712241444511575E+00    1.6874971279261690E+00   -1.4786541927203249E+01
C    3.4734366747194065E+00    2.2009204858952423E+00   -1.3188081420127846E+01
C   -4.1539573163954371E+00    8.4845946579043163E-01   -1.2385090951606896E+01
C   -5.3630094079921058E+00    7.8922607819006274E-01   -1.1493726223863661E+01
C   -6.7123236587238306E+00    1.1785806810846022E+00   -1.2040850782555381E+01
C   -6.8154933644098428E+00    1.4924092618121403E+00   -1.3531922878779600E+01
C   -5.6054628554630570E+00    1.4978833205443587E+00   -1.4392863811443686E+01
C   -4.2432437105353547E+00    1.2064096281180143E+00   -1.3829485665577803E+01
O   -7.7381289911981739E+00    1.5548217468424650E+00   -1.1019552475765122E+01
C   -9.2983080834754137E+00    1.0022705294471848E+00   -1.1203298300233286E+01
C   -9.7165800454747444E+00   -1.6803950101120690E-01   -1.0145440957447196E+01
C   -8.4905480839045460E+00   -1.2858075682815111E+00   -1.0502600902026382E+01
C   -1.0315746936350696E+01    2.2178208897696972E+00   -1.0895261757074538E+01
C   -9.6610714231796244E+00    3.4877854395644952E+00   -1.1715308954894676E+01
H    9.3685238960131034E+00    1.0915008284547953E+00   -7.9036284730287614E+00
H    1.0252460434108036E+01    2.6099535833860094E-01   -9.7034885491954483E+00
H    9.1488814263829603E+00    2.0839709634964136E+00   -9.5777784306180340E+00
H    7.0868993211810301E+00   -6.1884233709975622E-01   -8.8387584068217766E+00
H    6.8694226827634761E+00    1.0957373010561708E+00   -7.9485158917552230E+00
H    4.3865113280872201E+00    2.6919547502521781E+00   -8.8367270808122829E+00
H    2.8982872503767516E+00   -1.7601399372283730E+00   -1.1174514506005567E+01
H    4.5360036733021678E+00   -1.2332505291701052E+00   -1.2934883121523240E+01
H    5.9374959138766865E+00    1.3327997483568590E-01   -1.2732849142692025E+01
H    7.4252112015753839E+00   -2.5343043265133782E+00   -1.2538711608602018E+01
H    6.2029171012893807E+00   -2.8546651671102148E+00   -1.4047810128814390E+01
H    7.4994963544518054E+00   -1.4059289489018794E+00   -1.4136119302372236E+01
H    3.8198205026213152E+00    3.2059447598535149E+00   -5.5135698662944614E+00
H    5.9673905784469641E+00    2.9551564489487647E-01   -3.9170793349119224E+00
H    5.7819862661157817E+00    1.6974823306700404E+00   -5.3176758228445005E+00
H    7.7191378974554947E+00    1.9400448757832098E+00   -2.6250729740068901E+00
H    8.5708807891012881E+00    1.2703928408182596E+00   -4.2520428245010393E+00
H    7.7884448442023313E+00    3.0878013744349317E+00   -4.2114064622700100E+00
H    1.1119808242828648E+00   -1.3368412095526838E-01   -2.4314206335257316E+00
H   -5.6001232557337444E-01   -3.5773683808124406E+00   -1.2081794156750137E+01
H   -4.2086766618842153E-01   -6.3990504039597846E+00   -1.0933787355442220E+01
H   -2.2568099275604214E+00   -7.2090947196326658E+00   -1.0675741794586415E+01
H   -5.1810637733846632E-01   -9.2843858353656170E+00   -1.1490572203169361E+01
H   -1.7718804854807213E+00   -8.7714592141658017E+00   -1.2894963691699953E+01
H    1.0364812999936536E-01   -8.1311740394253427E+00   -1.2927231721403210E+01
H   -5.1402809784070316E+00   -4.0971227275197402E+00   -9.4269216089948440E+00
H   -5.8185761091605857E+00   -4.9318950412351157E+00   -1.1908177342466693E+01
H   -4.5235361756052201E+00   -5.8319329472513912E+00   -1.3128177019319020E+01
H   -6.7891105838520334E+00   -7.4898540930513597E+00   -1.1319539231503448E+01
H   -7.3637612145551632E+00   -6.8587401526685188E+00   -1.3074927796220916E+01
H   -5.9029171962148110E+00   -8.1426854682541290E+00   -1.2961220975896619E+01
H   -2.4523078540993417E+00   -1.7753543779691709E+00   -2.3715030413254743E+00
H   -6.1400781732154908E+00   -3.0248734528868657E+00   -5.9515002574691733E+00
H   -6.4999945598000313E+00   -3.7705065561621298E+00   -1.8048479214140074E+00
H   -7.4951985812169140E+00   -3.0329122889039053E+00   -3.3759437256247540E+00
H   -8.6233965806499437E+00   -5.2373704111559558E+00   -1.3197684926893394E+00
H   -9.3903723028747734E+00   -4.7261053717706263E+00   -3.0277158429013338E+00
H   -8.0506203470915967E+00   -6.1641550120432518E+00   -2.9483992714096199E+00
H   -4.1747442500534024E+00   -5.7049113190876692E+00   -3.1463205127939440E+00
H   -2.3650493561398913E+00   -4.8692223273146276E+00   -2.8046121142939109E+00
H   -3.0444743208688076E+00   -7.5409150333171997E+00   -1.5307513620785844E+00
H   -2.0792379907055816E+00   -6.1811583415490032E+00   -5.3663119109651647E-01
H   -4.0423936591347411E+00   -6.3441446464552413E+00   -3.5872557474386446E-01
H    3.4416518874141793E+00    2.3554366618045837E+00   -3.4491499056309050E-01
H    1.9738876533538323E+00    9.1694582305193817E-01   -3.1724121118736021E-01
H    3.6052314674465893E+00   -5.2933200449490292E-01    1.4884116215958192E+00
H    4.9286017411268253E+00    9.6986890444308715E-01    1.5049420719182987E+00
H    3.0928586174475377E+00    1.4223676435751471E+00    2.4226991474626960E+00
H   -8.4764129893519282E+00    1.0794004883604489E+00   -7.3961906041511796E+00
H   -9.9362111118729608E+00    1.8632231423139787E+00   -5.2169351145597656E+00
H   -8.6662187454764208E+00    2.6457739794503738E+00   -3.0942425435631438E+00
H   -4.9744570143501115E+00    2.3493304642909658E+00   -7.9928962776492252E-01
H   -4.0776288239308291E+00   -1.1724790895957816E-01   -1.9582543003442998E+00
H   -4.2746241507065470E+00    8.8142378063350102E-01   -3.5672349099974165E+00
H   -2.5476234145027070E+00    1.8393411598257126E+00   -9.3126112854444298E-01
H   -1.7491784787752529E+00    1.1673119522544100E+00   -2.5795238602427051E+00
H   -2.7467654419212351E+00    2.8209666699937910E+00   -2.6612046019495166E+00
H   -6.8704123682190215E+00    5.9107784263770458E-01   -2.7533891276856250E+00
H   -6.3818792486042044E+00   -1.3799912206212464E-01   -1.0312102375969341E+00
H   -7.6056352440221673E+00    1.7473590851292087E+00    2.3482147740257095E-01
H   -7.6778727226796759E+00    2.8803920208494600E+00   -1.3508694718353018E+00
H   -8.8584096743769383E+00    1.3113266128966476E+00   -1.1923525041749765E+00
H    4.3333819355125136E-01    8.5209456188361461E+00   -4.1976620306009700E+00
H   -8.4854735293581074E-01    7.4163698555802480E+00   -2.2443920738155274E+00
H   -2.1265994760138782E+00    5.1427383109537042E+00   -2.4555447044431720E+00
H    1.9225160061516695E+00    8.7068332598437657E+00   -6.1533929371495937E+00
H    2.3543391061635939E+00    6.3317952686497243E+00   -8.4376214015315600E+00
H    3.7948070843727981E+00    7.4757126686281277E+00   -7.7304038440406568E+00
H    2.7423589848952834E+00    4.7536567904464109E+00   -6.5932755911478420E+00
H    4.0277261165635529E+00    5.9918516751445940E+00   -5.7427949729061423E+00
H    2.1171701615449274E+00    6.1375142888965568E+00   -5.3945130222146291E+00
H    2.5354409270146863E+00    9.8075304976479405E+00   -8.4036180239961045E+00
H    1.5678871684580888E+00    8.4922833993672313E+00   -9.4469886966386003E+00
H    6.5616794740787993E-02    1.0173707801321157E+01   -7.0909696218346321E+00
H    2.4989614389548617E-01    1.1058300561291903E+01   -8.8172227135427264E+00
H   -7.2426368801224839E-01    9.3569062205073177E+00   -8.6822216119355886E+00
H    1.2909885462145867E+00    5.0885138079193526E+00   -1.4976098600782347E+01
H    1.6066191003236867E+00    7.0587844850684327E+00   -1.3278131143398008E+01
H    7.9213002938753829E-01    6.7218367867839879E+00   -1.0693951091083811E+01
H    1.2718381108128478E+00    1.1422252365632883E+00   -1.2772197482907774E+01
H    9.0390662098960395E-01    7.8163385730983751E-03   -1.5780205257640198E+01
H    1.8692844892794187E+00   -9.3318065593387800E-01   -1.4405536547439629E+01
H   -4.0132058437806162E-01   -8.7082075251747604E-01   -1.2761282119607488E+01
H   -1.3659653577767819E+00   -5.3271770807863959E-02   -1.4267050344561195E+01
H   -7.3986360447670552E-01   -1.9068020976410116E+00   -1.4367449107927683E+01
H    3.4607374309258612E+00    6.9856011758790759E-01   -1.4790682600518217E+01
H    2.4731089236089772E+00    2.7561230813165767E+00   -1.5231357977353492E+01
H    3.7036185825305759E+00    1.4704530815942145E+00   -1.2214315074495625E+01
H    4.4375265618826596E+00    3.0063995408467066E+00   -1.3189265473811432E+01
H    2.6218830340736607E+00    2.9080275742878485E+00   -1.2644856332547313E+01
H   -7.8415373247596687E+00    1.9080837278577576E+00   -1.4055970889605103E+01
H   -5.7246177884237497E+00    1.8716107930629100E+00   -1.5558682199197706E+01
H   -3.2556690359417413E+00    1.3740781899190200E+00   -1.4505804667856209E+01
H   -9.2632883283924858E+00    6.4833696312277767E-01   -1.2373307766904913E+01
H   -9.5323606720205039E+00    2.5192336878997307E-01   -9.0446778842774016E+00
H   -1.0872334425024800E+01   -4.6090600598678133E-01   -1.0317055946678318E+01
H   -7.9767253909238249E+00   -1.8394729959875029E+00   -9.5345164477127717E+00
H   -8.7415118854937397E+00   -2.2368884289349653E+00   -1.1247771298130759E+01
H   -7.5141673922028618E+00   -7.8543495071846003E-01   -1.1023112976995483E+01
H   -1.1424495219228794E+01    1.8616491660378245E+00   -1.1205874149153788E+01
H   -1.0394582618384570E+01    2.3041696188859615E+00   -9.6857745443999743E+00
H   -9.2598960136139059E+00    4.3635785080844114E+00   -1.0982901395440194E+01
H   -8.6631162203743344E+00    3.1064018995070750E+00   -1.2293609713553920E+01
H   -1.0357271226992660E+01    4.0284122497676016E+00   -1.2556677536650330E+01
     &END COORD
     &KIND Dy
       BASIS_SET SZV-MOLOPT-SR-GTH
       POTENTIAL GTH-PBE-q20
       &POTENTIAL
 4 6 0 10
  0.5102968700000000E+00 2  0.1767093508000000E+02 -0.8678777000000000E+00
 4
  0.4421234800000000E+00 2 -0.2715733840000000E+01  0.4017884260000000E+01
 -0.5187066270000000E+01
  0.4501723000000000E+00 2 -0.2773475350000000E+01  0.2201152450000000E+01
 -0.2604438700000000E+01
  0.4711651400000000E+00 1 -0.7522756100000000E+00
  0.2618074100000000E+00 1 -0.2424856414000000E+02
         # Potential name:  GTH-PBE-Q20  for symbol:  DY
         # Potential read from the potential filename: ../POTENTIAL
       &END POTENTIAL
     &END KIND
     &KIND Tb
       BASIS_SET SZV-MOLOPT-SR-GTH
       POTENTIAL GTH-PBE-q19
     &END KIND
     &KIND Ho
       BASIS_SET SZV-MOLOPT-SR-GTH
       POTENTIAL GTH-PBE-q21
     &END KIND
     &KIND Gd
       BASIS_SET SZV-MOLOPT-SR-GTH
       POTENTIAL GTH-PBE-q18
     &END KIND
     &KIND Lu
       BASIS_SET SZV-MOLOPT-SR-GTH
       POTENTIAL GTH-PBE-q25
     &END KIND
     &KIND Pm
       BASIS_SET SZV-MOLOPT-SR-GTH
       POTENTIAL GTH-PBE-q15
     &END KIND
     &KIND Tm
       BASIS_SET SZV-MOLOPT-SR-GTH
       POTENTIAL GTH-PBE-q23
     &END KIND
     &KIND F
       BASIS_SET SZV-GTH-PADE
       POTENTIAL GTH-PBE-q7
     &END KIND
     &KIND S
       BASIS_SET SZV-GTH-PADE
       POTENTIAL GTH-PBE-q6
     &END KIND
     &KIND Na
       BASIS_SET SZV-GTH-PADE
       POTENTIAL GTH-PBE-q9
     &END KIND
     &KIND B
       BASIS_SET SZV-GTH-PADE
       POTENTIAL GTH-PBE-q3
     &END KIND
     &KIND Cl
       BASIS_SET SZV-GTH-PADE
       POTENTIAL GTH-PBE-q7
     &END KIND
     &KIND H
       BASIS_SET SZV-GTH-PADE
       POTENTIAL GTH-PBE-q1
       &POTENTIAL
 1
  0.2000000000000000E+00 2 -0.4178900440000000E+01  0.7244633100000000E+00
 0
         # Potential name:  GTH-PBE-Q1  for symbol:  H
         # Potential read from the potential filename: ../POTENTIAL
       &END POTENTIAL
     &END KIND
     &KIND N
       BASIS_SET SZV-GTH-PADE
       POTENTIAL GTH-PBE-q5
       &POTENTIAL
 2 3
  0.2837905100000000E+00 2 -0.1241522559000000E+02  0.1868095920000000E+01
 2
  0.2554050000000000E+00 1  0.1363026257000000E+02
  0.2454945300000000E+00 0
         # Potential name:  GTH-PBE-Q5  for symbol:  N
         # Potential read from the potential filename: ../POTENTIAL
       &END POTENTIAL
     &END KIND
     &KIND O
       BASIS_SET SZV-GTH-PADE
       POTENTIAL GTH-PBE-q6
       &POTENTIAL
 2 4
  0.2445543000000000E+00 2 -0.1666721480000000E+02  0.2487311320000000E+01
 2
  0.2209559200000000E+00 1  0.1833745811000000E+02
  0.2113324700000000E+00 0
         # Potential name:  GTH-PBE-Q6  for symbol:  O
         # Potential read from the potential filename: ../POTENTIAL
       &END POTENTIAL
     &END KIND
     &KIND C
       BASIS_SET SZV-GTH-PADE
       POTENTIAL GTH-PBE-q4
       &POTENTIAL
 2 2
  0.3384712400000000E+00 2 -0.8803673979999999E+01  0.1339210850000000E+01
 2
  0.3025757500000000E+00 1  0.9622486650000001E+01
  0.2915069400000000E+00 0
         # Potential name:  GTH-PBE-Q4  for symbol:  C
         # Potential read from the potential filename: ../POTENTIAL
       &END POTENTIAL
     &END KIND
     &TOPOLOGY
       COORD_FILE_NAME ../../Dy_L9_L2.xyz
       COORD_FILE_FORMAT  XYZ
       NUMBER_OF_ATOMS  233
       MULTIPLE_UNIT_CELL  1 1 1
     &END TOPOLOGY
   &END SUBSYS
 &END FORCE_EVAL
