 # Version information for this restart file 
 # current date 2023-04-10 15:51:02.386
 # current working dir /mnt/scratch2/users/40265864/MSc_ML_MM/ln_replacements/xyz/Dy_L9_L25_DMF_DMF/geometry_optimisation_2/run-6
 # Program compiled at                              Mon 24 Oct 18:14:20 BST 2022
 # Program compiled on                          login1.pri.kelvin2.alces.network
 # Program compiled for                                                    local
 # Source code revision number                                         svn:17462
 &GLOBAL
   PRINT_LEVEL  LOW
   PROJECT_NAME dy_complex
   RUN_TYPE  GEO_OPT
 &END GLOBAL
 &MOTION
   &GEO_OPT
     TYPE  MINIMIZATION
     OPTIMIZER  BFGS
     MAX_ITER  100
     MAX_DR     1.0000000000000001E-01
     MAX_FORCE     1.0000000000000001E-01
     RMS_DR     1.0000000000000000E-02
     RMS_FORCE     1.0000000000000000E-02
     STEP_START_VAL  27
     &BFGS
       TRUST_RADIUS     2.9999999999999999E-01
     &END BFGS
   &END GEO_OPT
 &END MOTION
 &FORCE_EVAL
   METHOD  QS
   &DFT
     BASIS_SET_FILE_NAME ../BASIS_MOLOPT_UCL
     BASIS_SET_FILE_NAME BASIS_SET
     POTENTIAL_FILE_NAME ../POTENTIAL
     UKS  T
     MULTIPLICITY  6
     CHARGE  3
     &SCF
       MAX_SCF  200
       EPS_SCF     5.0000000000000002E-05
       SCF_GUESS  RESTART
       &OT  T
         MINIMIZER  DIIS
         PRECONDITIONER  FULL_SINGLE_INVERSE
       &END OT
     &END SCF
     &MGRID
       NGRIDS  4
       CUTOFF     5.0000000000000000E+02
       REL_CUTOFF     3.0000000000000000E+01
     &END MGRID
     &XC
       DENSITY_CUTOFF     1.0000000000000000E-10
       GRADIENT_CUTOFF     1.0000000000000000E-10
       TAU_CUTOFF     1.0000000000000000E-10
       &XC_FUNCTIONAL  NO_SHORTCUT
         &PBE  T
         &END PBE
       &END XC_FUNCTIONAL
     &END XC
   &END DFT
   &SUBSYS
     &CELL
       A     2.5000000000000004E+01    0.0000000000000000E+00    0.0000000000000000E+00
       B     0.0000000000000000E+00    2.5000000000000004E+01    0.0000000000000000E+00
       C     0.0000000000000000E+00    0.0000000000000000E+00    2.5000000000000004E+01
       PERIODIC  XYZ
       MULTIPLE_UNIT_CELL  1 1 1
     &END CELL
     &COORD
C    2.3633029147351201E+00    5.8194629864426295E-01    8.9925672165406267E-01
C    1.5665230187593380E+00   -5.6251446473839806E-01    2.4498311949570617E-01
C    1.9123781321117865E+00   -9.1174278934624964E-01   -1.2188464470493789E+00
O    1.1194956177978974E+00   -6.5181145076665642E-02   -2.1630567273734416E+00
C    1.4503040855109479E+00    1.2458886470825756E+00   -2.3193046422279084E+00
C    7.0404971075859180E-01    2.2277810343224784E+00   -1.5984171653678882E+00
C    9.9423346029800452E-01    3.5974089717505620E+00   -1.6919264644381902E+00
C    2.0398013183988124E+00    4.0675696126330845E+00   -2.5277684224601722E+00
C    2.7515901874590787E+00    3.1161838230609815E+00   -3.2702538841811735E+00
C    2.4599979259014990E+00    1.7177434002451788E+00   -3.2006117953134199E+00
C    3.2955171583034741E+00    1.0942384450701255E+00   -4.2400909505622097E+00
N    3.1113818815348400E+00   -1.1944788979945722E-01   -4.7662888640792973E+00
C    3.8289082697990460E+00   -6.1538117921011648E-01   -5.7925788214502765E+00
C    3.2783456586702249E+00   -1.6290837833237513E+00   -6.7045039666204085E+00
C    1.9643737134102577E+00   -2.1002913762196207E+00   -6.7976570577643587E+00
C    1.6743774531566742E+00   -3.0091025777464124E+00   -7.8483472262611880E+00
C    2.6917778276996240E+00   -3.4465188364846457E+00   -8.7026122922435789E+00
C    4.0529841797562609E+00   -3.0083696974693472E+00   -8.5775575045332122E+00
C    4.3291106103384669E+00   -1.9992912796269426E+00   -7.6006232513717276E+00
C    5.4355910931103795E+00   -1.0668938826428540E+00   -7.2939008277106829E+00
N    5.1172716091362362E+00   -3.0801702463845498E-01   -6.1573075195012148E+00
Dy    6.4079460308758946E+00    1.3216690432419653E+00   -4.9972499727532371E+00
N    4.1855853866183965E+00    2.0325431399577334E+00   -4.7667910250177501E+00
C    3.8420647613410592E+00    3.2716836707298338E+00   -4.2612096177772338E+00
N    4.3410719292221227E+00    4.4473333385180966E+00   -4.6613983997375668E+00
C    5.4299993313288075E+00    4.5867251580976838E+00   -5.4357111928769317E+00
N    6.3985795430103591E+00    3.6003974248272868E+00   -5.6536339368172595E+00
C    7.3238455062833090E+00    4.1132840665944199E+00   -6.5221447487409643E+00
N    8.2724225177339950E+00    3.4797044962442722E+00   -7.2381162389348273E+00
C    8.2376897951629413E+00    2.1932869455528370E+00   -7.5821355119703471E+00
N    7.2906318471402685E+00    1.2488404747690081E+00   -7.1562507472844725E+00
C    7.3279343206938607E+00    1.8111794050941155E-01   -8.0224273662299250E+00
N    6.5160089830518881E+00   -9.0243348207530105E-01   -8.0721639296701930E+00
C    8.4075866937786330E+00    3.9410456132941135E-01   -9.0108743730107168E+00
C    9.0529634267592343E+00    1.6172484307861574E+00   -8.6636558407611481E+00
C    1.0176171786165758E+01    2.0814235101191776E+00   -9.4060959987999730E+00
C    1.0555043373626388E+01    1.2946010784727380E+00   -1.0545059395963381E+01
C    9.8628118012694550E+00    1.2944042004919676E-01   -1.0906477128118981E+01
C    8.7686033408691362E+00   -3.4928682365323394E-01   -1.0140557638840583E+01
O    1.0774362856667965E+01    3.2572015348939911E+00   -9.1056722623000539E+00
C    1.2185525137656160E+01    3.3350257239775107E+00   -8.5973205200365026E+00
C    1.2109854883033512E+01    3.1450078325652586E+00   -7.0717859585576965E+00
C    1.1436867032021011E+01    4.3133775517231348E+00   -6.3305939440645878E+00
C    1.3186414328244089E+01    2.4072134857699541E+00   -9.2974083061984842E+00
C    1.3617832836857772E+01    2.8633251778889561E+00   -1.0703955167033934E+01
C    7.0947921360292643E+00    5.5583037335210133E+00   -6.6957750829075726E+00
C    5.8307596939890303E+00    5.8363882476890083E+00   -6.0959195033572433E+00
C    5.3472689981840089E+00    7.1822079495933986E+00   -6.1265852580757381E+00
C    6.2822889453176005E+00    8.2010454467530014E+00   -6.5169397759603083E+00
C    7.5302452891535179E+00    7.8948911282213041E+00   -7.0660062483116706E+00
C    7.9351052694537429E+00    6.5391623397836414E+00   -7.2278731915726802E+00
O    4.1029571648107002E+00    7.6169646822548387E+00   -5.8532688194265603E+00
C    2.9375598107252476E+00    7.1284261338391222E+00   -6.6659027637926300E+00
C    1.6907680620771055E+00    7.5522984456800097E+00   -5.8896612563871802E+00
C    1.5018160654617485E+00    6.8232186491273481E+00   -4.5550921375705897E+00
C    3.0113140773589260E+00    7.7851304694105883E+00   -8.0590332681235477E+00
C    4.0042724097277391E+00    7.1719946753955837E+00   -9.0606282149446127E+00
O    8.5981311838287553E+00    1.5922034090155792E+00   -4.3659273516761408E+00
C    9.7917704230750715E+00    1.1503264572119982E+00   -4.3987725856382252E+00
N    1.0567443290054914E+01    9.9507767938388725E-01   -3.3199698130854238E+00
C    1.0087154721655681E+01    1.3602735250864477E+00   -1.9761550933329757E+00
C    1.1940717800919172E+01    4.6044353152211670E-01   -3.4694803120773869E+00
O    4.8002610045001504E+00    2.6999108786155470E+00   -7.8816751841248598E+00
C    3.7601243239492779E+00    2.4604372083736372E+00   -8.5228096181297648E+00
N    3.6101445420979306E+00    2.5777277253582116E+00   -9.8728056457217317E+00
C    4.7410368283848410E+00    3.0049000713005398E+00   -1.0698565592288196E+01
C    2.3254405704532801E+00    2.3273666069242984E+00   -1.0523123640789748E+01
N    6.1688700111772432E+00    1.5513432700131944E+00   -2.3999925879393587E+00
C    6.2187940481866928E+00    4.3073484213221469E-01   -1.6202066504237247E+00
C    6.3436039305228169E+00   -8.8061836112802661E-01   -2.3167261054984576E+00
N    6.6894743450126191E+00   -8.5649601358434724E-01   -3.6394386822993767E+00
C    6.9294425499827534E+00   -2.0413097277522509E+00   -4.2567622192774373E+00
C    6.8373433144187388E+00   -3.2887000060736868E+00   -3.6150792680128752E+00
C    6.3926060379307916E+00   -3.3174021811287311E+00   -2.2807845683484373E+00
C    6.1342303848222528E+00   -2.0998077448225554E+00   -1.6313268553141418E+00
C    6.1943912127044776E+00    5.0616572300168938E-01   -2.0816304832653751E-01
C    6.1031508411611011E+00    1.7577527194186653E+00    4.2228675514157826E-01
C    6.0368353682556330E+00    2.9098701875503381E+00   -3.7971989971731746E-01
C    6.0728314005774520E+00    2.7532524454315834E+00   -1.7790195742174149E+00
O    4.9307538324002680E+00   -3.5943768310199942E+00   -9.4235259103582507E+00
C    5.9700527702816961E+00   -4.5430135147975941E+00   -8.9195040289912644E+00
C    5.3006353331936999E+00   -5.7563433083144195E+00   -8.2382048132849839E+00
C    4.8709664761409766E+00   -5.5642730147177817E+00   -6.7735622206403425E+00
C    6.7558861685176668E+00   -4.9410120984782306E+00   -1.0172799201792913E+01
C    7.5272340181513568E+00   -3.7859135786817557E+00   -1.0824203363206403E+01
C    1.5563579992763832E+00   -2.3646984069664088E+00   -1.5566331749874887E+00
C    1.8517118474646086E+00   -2.8009964689147955E+00   -2.9984212776224521E+00
H    1.9848643533514014E+00    7.7266089500474655E-01    1.9153581723511912E+00
H    3.4319056523325404E+00    3.2510106958368806E-01    9.8796302430135130E-01
H    2.2895195094886436E+00    1.5294268583989294E+00    3.4142859450522023E-01
H    1.7063024695425248E+00   -1.4772320139353210E+00    8.4655626133627071E-01
H    4.8327120372164795E-01   -3.5201117757383243E-01    2.8257869735274183E-01
H    2.9824543127572052E+00   -7.2224793641399387E-01   -1.4387265030805567E+00
H   -9.0352593070829545E-02    1.8716903559393412E+00   -9.3886216034288583E-01
H    4.0685183585325935E-01    4.3101792072317089E+00   -1.1066853354859285E+00
H    2.2619063987926382E+00    5.1331811244404157E+00   -2.6087522923629680E+00
H    1.1959210348256197E+00   -1.7601917678075580E+00   -6.0990456592355331E+00
H    6.5863975454809320E-01   -3.3928340678025699E+00   -7.9794769344293144E+00
H    2.4934261235588528E+00   -4.1990190923986566E+00   -9.4691998784127716E+00
H    1.1384098933578851E+01    1.6390623460680243E+00   -1.1163676173610771E+01
H    1.0174919729440248E+01   -4.1510408849198227E-01   -1.1802361609335179E+01
H    8.2078827828443366E+00   -1.2375247445820365E+00   -1.0436264900856704E+01
H    1.2434917639244533E+01    4.3853192722030503E+00   -8.8258071222257595E+00
H    1.1574845926132763E+01    2.1931757138747474E+00   -6.8812557747633916E+00
H    1.3135773238390161E+01    3.0022766440228272E+00   -6.6889779344929128E+00
H    1.1311484258784516E+01    4.0951641433215542E+00   -5.2559603434626334E+00
H    1.2045484300731971E+01    5.2289884861458971E+00   -6.4120430984761025E+00
H    1.0439441202895967E+01    4.5172009277736533E+00   -6.7524008893158687E+00
H    1.4079190594430266E+01    2.3623456030885865E+00   -8.6507473312258529E+00
H    1.2787612836116484E+01    1.3767313435376709E+00   -9.3087155756150022E+00
H    1.4237102134910835E+01    2.0927744373961739E+00   -1.1191209255095682E+01
H    1.2762632479645349E+01    3.0782087906720350E+00   -1.1365170805113246E+01
H    1.4218070502375056E+01    3.7850861698424962E+00   -1.0649833212976139E+01
H    5.9415734470958332E+00    9.2358829431318075E+00   -6.4323820004124874E+00
H    8.1842040784924599E+00    8.7042247146929128E+00   -7.4022393574746177E+00
H    8.8878135553591715E+00    6.2744933512488865E+00   -7.6935178191521745E+00
H    3.0157696392692692E+00    6.0285401618395937E+00   -6.7261160218543843E+00
H    1.7279291998426207E+00    8.6460994880327782E+00   -5.7408479347056351E+00
H    8.2487893816599811E-01    7.3590396060999410E+00   -6.5454956464243637E+00
H    1.4350066480365871E+00    5.7340642707556793E+00   -4.7202009910516205E+00
H    2.3487415472939110E+00    7.0215275368673193E+00   -3.8770818369726205E+00
H    5.7465629986975975E-01    7.1522031616328983E+00   -4.0600222646060855E+00
H    1.9960391728807503E+00    7.7411262961326592E+00   -8.4908608509838235E+00
H    3.2232871032694628E+00    8.8599203624397731E+00   -7.9084184846501735E+00
H    3.7425634076080878E+00    6.1264504939598527E+00   -9.2954773087659692E+00
H    3.9986055631955653E+00    7.7439217046091953E+00   -1.0000548159101021E+01
H    5.0414633611905755E+00    7.1820464897228522E+00   -8.6900129067285761E+00
H    1.0257916824174922E+01    8.7476757986821330E-01   -5.3627440555768437E+00
H    9.9830384182918817E+00    4.5161954077992822E-01   -1.3610301919380481E+00
H    1.0807647392379788E+01    2.0420137884938807E+00   -1.4972658857282188E+00
H    9.1145372510024458E+00    1.8582130448136700E+00   -2.0750058240584641E+00
H    1.2279245629580032E+01    8.9886675549131989E-02   -2.4929004133407324E+00
H    1.1950919539601074E+01   -3.8056663141738362E-01   -4.1791903807599642E+00
H    1.2638258116277720E+01    1.2434435300045503E+00   -3.8104614644363917E+00
H    2.8343551202765656E+00    2.0902881131508781E+00   -8.0244281362688099E+00
H    5.5651629178653019E+00    3.2864826483658787E+00   -1.0027985673107374E+01
H    5.0708289750020583E+00    2.1814102467966605E+00   -1.1354835368179980E+01
H    4.4622918318445715E+00    3.8677652490133818E+00   -1.1323306286475386E+01
H    1.5953034860719688E+00    2.0052048746583711E+00   -9.7647804921360066E+00
H    1.9487970636382983E+00    3.2457755280855642E+00   -1.1005540068380828E+01
H    2.4161219362281678E+00    1.5371432917114365E+00   -1.1285855939399669E+01
H    7.1982327500427923E+00   -1.9904504689774414E+00   -5.3175339890212765E+00
H    7.0845553967943955E+00   -4.2060931328750630E+00   -4.1548072677559285E+00
H    6.2465603662142337E+00   -4.2644083104187791E+00   -1.7539257063652800E+00
H    5.7571524660524265E+00   -2.1000214140302962E+00   -6.0660417096088493E-01
H    6.2705945372675824E+00   -3.9846770463663889E-01    3.9873151524387845E-01
H    6.0805118916209020E+00    1.8272164207637347E+00    1.5131135590175566E+00
H    5.9673913738523447E+00    3.9068652790037199E+00    6.2253642703984778E-02
H    6.0178408472609224E+00    3.6331023584928257E+00   -2.4254875889102059E+00
H    6.6045001364761831E+00   -3.9776727073668057E+00   -8.2110651618096462E+00
H    4.4444755728721219E+00   -6.0699827290310164E+00   -8.8615104994272276E+00
H    6.0226786663973444E+00   -6.5903560754706190E+00   -8.2868854732622541E+00
H    4.3871589977340042E+00   -6.4753433183962317E+00   -6.3902829697828611E+00
H    5.7453311746391957E+00   -5.3554754130534343E+00   -6.1323257869217782E+00
H    4.1527790224877466E+00   -4.7394137422698854E+00   -6.6448732041606213E+00
H    7.4519249068709010E+00   -5.7460971213990453E+00   -9.8849462425859915E+00
H    6.0436317899759127E+00   -5.3833764884681408E+00   -1.0891637031920842E+01
H    8.3308737491030183E+00   -3.4301257286660349E+00   -1.0156121140084348E+01
H    7.9884130260118456E+00   -4.1091401124411000E+00   -1.1768752004938857E+01
H    6.8490061739879113E+00   -2.9447159386304445E+00   -1.1043704224556295E+01
H    2.1209348787645363E+00   -3.0005473236163249E+00   -8.5034505051815512E-01
H    4.9051552007573718E-01   -2.5262332628103099E+00   -1.3202812378456252E+00
H    1.5780199874130290E+00   -3.8581256383730498E+00   -3.1446942412735877E+00
H    1.2796647299039146E+00   -2.1905574096381093E+00   -3.7131347131879786E+00
H    2.9225480488573163E+00   -2.6867785349314488E+00   -3.2445185210243470E+00
     &END COORD
     &KIND Dy
       BASIS_SET DZVP-MOLOPT-SR-GTH
       POTENTIAL GTH-PBE-q20
       &POTENTIAL
 4 6 0 10
  0.5102968700000000E+00 2  0.1767093508000000E+02 -0.8678777000000000E+00
 4
  0.4421234800000000E+00 2 -0.2715733840000000E+01  0.4017884260000000E+01
 -0.5187066270000000E+01
  0.4501723000000000E+00 2 -0.2773475350000000E+01  0.2201152450000000E+01
 -0.2604438700000000E+01
  0.4711651400000000E+00 1 -0.7522756100000000E+00
  0.2618074100000000E+00 1 -0.2424856414000000E+02
         # Potential name:  GTH-PBE-Q20  for symbol:  DY
         # Potential read from the potential filename: ../POTENTIAL
       &END POTENTIAL
     &END KIND
     &KIND Tb
       BASIS_SET DZVP-MOLOPT-SR-GTH
       POTENTIAL GTH-PBE-q19
     &END KIND
     &KIND Ho
       BASIS_SET DZVP-MOLOPT-SR-GTH
       POTENTIAL GTH-PBE-q21
     &END KIND
     &KIND Gd
       BASIS_SET DZVP-MOLOPT-SR-GTH
       POTENTIAL GTH-PBE-q18
     &END KIND
     &KIND Lu
       BASIS_SET DZVP-MOLOPT-SR-GTH
       POTENTIAL GTH-PBE-q25
     &END KIND
     &KIND Pm
       BASIS_SET DZVP-MOLOPT-SR-GTH
       POTENTIAL GTH-PBE-q15
     &END KIND
     &KIND Tm
       BASIS_SET DZVP-MOLOPT-SR-GTH
       POTENTIAL GTH-PBE-q23
     &END KIND
     &KIND F
       BASIS_SET DZVP-GTH-PADE
       POTENTIAL GTH-PBE-q7
     &END KIND
     &KIND S
       BASIS_SET DZVP-GTH-PADE
       POTENTIAL GTH-PBE-q6
     &END KIND
     &KIND Na
       BASIS_SET DZVP-GTH-PADE
       POTENTIAL GTH-PBE-q9
     &END KIND
     &KIND B
       BASIS_SET DZVP-GTH-PADE
       POTENTIAL GTH-PBE-q3
     &END KIND
     &KIND Cl
       BASIS_SET DZVP-GTH-PADE
       POTENTIAL GTH-PBE-q7
     &END KIND
     &KIND H
       BASIS_SET DZVP-GTH-PADE
       POTENTIAL GTH-PBE-q1
       &POTENTIAL
 1
  0.2000000000000000E+00 2 -0.4178900440000000E+01  0.7244633100000000E+00
 0
         # Potential name:  GTH-PBE-Q1  for symbol:  H
         # Potential read from the potential filename: ../POTENTIAL
       &END POTENTIAL
     &END KIND
     &KIND N
       BASIS_SET DZVP-GTH-PADE
       POTENTIAL GTH-PBE-q5
       &POTENTIAL
 2 3
  0.2837905100000000E+00 2 -0.1241522559000000E+02  0.1868095920000000E+01
 2
  0.2554050000000000E+00 1  0.1363026257000000E+02
  0.2454945300000000E+00 0
         # Potential name:  GTH-PBE-Q5  for symbol:  N
         # Potential read from the potential filename: ../POTENTIAL
       &END POTENTIAL
     &END KIND
     &KIND O
       BASIS_SET DZVP-GTH-PADE
       POTENTIAL GTH-PBE-q6
       &POTENTIAL
 2 4
  0.2445543000000000E+00 2 -0.1666721480000000E+02  0.2487311320000000E+01
 2
  0.2209559200000000E+00 1  0.1833745811000000E+02
  0.2113324700000000E+00 0
         # Potential name:  GTH-PBE-Q6  for symbol:  O
         # Potential read from the potential filename: ../POTENTIAL
       &END POTENTIAL
     &END KIND
     &KIND C
       BASIS_SET DZVP-GTH-PADE
       POTENTIAL GTH-PBE-q4
       &POTENTIAL
 2 2
  0.3384712400000000E+00 2 -0.8803673979999999E+01  0.1339210850000000E+01
 2
  0.3025757500000000E+00 1  0.9622486650000001E+01
  0.2915069400000000E+00 0
         # Potential name:  GTH-PBE-Q4  for symbol:  C
         # Potential read from the potential filename: ../POTENTIAL
       &END POTENTIAL
     &END KIND
     &TOPOLOGY
       COORD_FILE_NAME ../../Dy_L9_L25_DMF_DMF.xyz
       COORD_FILE_FORMAT  XYZ
       NUMBER_OF_ATOMS  165
       MULTIPLE_UNIT_CELL  1 1 1
     &END TOPOLOGY
   &END SUBSYS
 &END FORCE_EVAL
