 # Version information for this restart file 
 # current date 2023-04-10 15:52:00.319
 # current working dir /mnt/scratch2/users/40265864/MSc_ML_MM/ln_replacements/xyz/Dy_L9_L25_DMF_DMF/geometry_optimisation_2/run-6
 # Program compiled at                              Mon 24 Oct 18:14:20 BST 2022
 # Program compiled on                          login1.pri.kelvin2.alces.network
 # Program compiled for                                                    local
 # Source code revision number                                         svn:17462
 &GLOBAL
   PRINT_LEVEL  LOW
   PROJECT_NAME dy_complex
   RUN_TYPE  GEO_OPT
 &END GLOBAL
 &MOTION
   &GEO_OPT
     TYPE  MINIMIZATION
     OPTIMIZER  BFGS
     MAX_ITER  100
     MAX_DR     1.0000000000000001E-01
     MAX_FORCE     1.0000000000000001E-01
     RMS_DR     1.0000000000000000E-02
     RMS_FORCE     1.0000000000000000E-02
     STEP_START_VAL  28
     &BFGS
       TRUST_RADIUS     2.9999999999999999E-01
     &END BFGS
   &END GEO_OPT
 &END MOTION
 &FORCE_EVAL
   METHOD  QS
   &DFT
     BASIS_SET_FILE_NAME ../BASIS_MOLOPT_UCL
     BASIS_SET_FILE_NAME BASIS_SET
     POTENTIAL_FILE_NAME ../POTENTIAL
     UKS  T
     MULTIPLICITY  6
     CHARGE  3
     &SCF
       MAX_SCF  200
       EPS_SCF     5.0000000000000002E-05
       SCF_GUESS  RESTART
       &OT  T
         MINIMIZER  DIIS
         PRECONDITIONER  FULL_SINGLE_INVERSE
       &END OT
     &END SCF
     &MGRID
       NGRIDS  4
       CUTOFF     5.0000000000000000E+02
       REL_CUTOFF     3.0000000000000000E+01
     &END MGRID
     &XC
       DENSITY_CUTOFF     1.0000000000000000E-10
       GRADIENT_CUTOFF     1.0000000000000000E-10
       TAU_CUTOFF     1.0000000000000000E-10
       &XC_FUNCTIONAL  NO_SHORTCUT
         &PBE  T
         &END PBE
       &END XC_FUNCTIONAL
     &END XC
   &END DFT
   &SUBSYS
     &CELL
       A     2.5000000000000004E+01    0.0000000000000000E+00    0.0000000000000000E+00
       B     0.0000000000000000E+00    2.5000000000000004E+01    0.0000000000000000E+00
       C     0.0000000000000000E+00    0.0000000000000000E+00    2.5000000000000004E+01
       PERIODIC  XYZ
       MULTIPLE_UNIT_CELL  1 1 1
     &END CELL
     &COORD
C    2.3649495636841236E+00    5.8076648336862013E-01    8.9870854923538035E-01
C    1.5678271315257806E+00   -5.6232697877469373E-01    2.4402135472766515E-01
C    1.9145576446481709E+00   -9.1332853714776474E-01   -1.2193479621327357E+00
O    1.1210901985874282E+00   -6.8130673685570228E-02   -2.1630697996251076E+00
C    1.4489826766357659E+00    1.2427943312243059E+00   -2.3210736834897530E+00
C    7.0473985626600455E-01    2.2273780491254311E+00   -1.6005663485329256E+00
C    9.9504469434164988E-01    3.5972745497200624E+00   -1.6943219376542626E+00
C    2.0426865053826853E+00    4.0651022220703092E+00   -2.5279723722733594E+00
C    2.7522628451275661E+00    3.1132752862292774E+00   -3.2701382032168018E+00
C    2.4582676646164732E+00    1.7157868167564700E+00   -3.2039431572620343E+00
C    3.2935328564189663E+00    1.0964258327227792E+00   -4.2473321362252410E+00
N    3.1185567538832739E+00   -1.2004454147496180E-01   -4.7672304345776348E+00
C    3.8315414873320250E+00   -6.1124532640962470E-01   -5.7993497796719300E+00
C    3.2778459746047424E+00   -1.6275575727329992E+00   -6.7046457126804322E+00
C    1.9656454757839124E+00   -2.1020468109088730E+00   -6.7996745093601980E+00
C    1.6738890063674010E+00   -3.0120530077083454E+00   -7.8490518449763078E+00
C    2.6931425797184660E+00   -3.4479245029555745E+00   -8.7031063643737117E+00
C    4.0523044070528567E+00   -3.0043305818920887E+00   -8.5790981679666984E+00
C    4.3252375719901455E+00   -1.9967249872298789E+00   -7.6029504903538090E+00
C    5.4318367328550101E+00   -1.0636461771795398E+00   -7.3029223796863301E+00
N    5.1154018698885455E+00   -2.9745855709241714E-01   -6.1719881735021600E+00
Dy    6.3991575807607779E+00    1.3298607413625105E+00   -4.9960744367521919E+00
N    4.1727782368911113E+00    2.0413486001633312E+00   -4.7788287544947048E+00
C    3.8341684252425585E+00    3.2754645982110735E+00   -4.2657723679935806E+00
N    4.3389593576903067E+00    4.4539962705490250E+00   -4.6529295853521120E+00
C    5.4172564670175314E+00    4.5894522085969616E+00   -5.4418319072730981E+00
N    6.3871966341426401E+00    3.6015801983304780E+00   -5.6511554466165421E+00
C    7.3131745190232840E+00    4.1103238960804447E+00   -6.5241476933916092E+00
N    8.2677440653814482E+00    3.4784027849147607E+00   -7.2354332539183215E+00
C    8.2282116400702350E+00    2.1914277589122837E+00   -7.5829826551111106E+00
N    7.2882287253355207E+00    1.2403696479881363E+00   -7.1531560034141863E+00
C    7.3226565709820388E+00    1.8306284016507052E-01   -8.0297406798202786E+00
N    6.5106101180067002E+00   -8.9885601634529888E-01   -8.0829349993897068E+00
C    8.4022111331460074E+00    3.9835891703489679E-01   -9.0141560872295852E+00
C    9.0470877928298528E+00    1.6202341337889745E+00   -8.6622719463933695E+00
C    1.0165405525375613E+01    2.0865640645744699E+00   -9.4087652739615475E+00
C    1.0553715123298677E+01    1.2939484918938235E+00   -1.0541552106631034E+01
C    9.8655886975125657E+00    1.2669049020461556E-01   -1.0903803789274306E+01
C    8.7692009132195228E+00   -3.4896339649827557E-01   -1.0138026235288676E+01
O    1.0765939257749048E+01    3.2602624573280266E+00   -9.1000740546193857E+00
C    1.2180760037368636E+01    3.3388153760555976E+00   -8.5929665547331577E+00
C    1.2107428763556399E+01    3.1409177621657007E+00   -7.0677807473858829E+00
C    1.1437902011480118E+01    4.3134943966935859E+00   -6.3325952672895029E+00
C    1.3179755594143057E+01    2.4099545818469084E+00   -9.2965749837272842E+00
C    1.3617105942134408E+01    2.8613497137135990E+00   -1.0702606933859235E+01
C    7.0939156866912008E+00    5.5564188615745644E+00   -6.6854363405649790E+00
C    5.8327210848402480E+00    5.8415030457183104E+00   -6.0836685133987372E+00
C    5.3448749769230828E+00    7.1821063148243205E+00   -6.1315763355849482E+00
C    6.2875929604590555E+00    8.2020525817854573E+00   -6.5092300811212489E+00
C    7.5300577918803961E+00    7.8902737321320098E+00   -7.0695447778352820E+00
C    7.9335423629483905E+00    6.5349042054237385E+00   -7.2240965076380661E+00
O    4.1033253444894342E+00    7.6175034961397143E+00   -5.8404861037200497E+00
C    2.9430555198335431E+00    7.1302251293476910E+00   -6.6653710071760246E+00
C    1.6919326434342554E+00    7.5513078812181176E+00   -5.8943249001109930E+00
C    1.5026026651444990E+00    6.8240790568629874E+00   -4.5592252564485838E+00
C    3.0130287747637459E+00    7.7896363050175834E+00   -8.0580084159403196E+00
C    4.0037876954153573E+00    7.1716872247052965E+00   -9.0585885074119847E+00
O    8.6039091581591691E+00    1.5995669899486924E+00   -4.3819631565042316E+00
C    9.7941292188303049E+00    1.1549342687325719E+00   -4.4000268815370465E+00
N    1.0568938339144269E+01    9.9564295799437108E-01   -3.3220105483840880E+00
C    1.0087953656757062E+01    1.3597442048933601E+00   -1.9795635417801751E+00
C    1.1940691447476997E+01    4.6063694934201088E-01   -3.4679326329071398E+00
O    4.8035411636052165E+00    2.6983598774732900E+00   -7.8714560447469122E+00
C    3.7622056928473482E+00    2.4459547345631338E+00   -8.5177839991677615E+00
N    3.6134737028812962E+00    2.5807303088364817E+00   -9.8637933173491614E+00
C    4.7461837420144413E+00    3.0032973751579348E+00   -1.0691208511247741E+01
C    2.3278143508237572E+00    2.3255369464493518E+00   -1.0515411866190716E+01
N    6.1670022336884811E+00    1.5537498756134887E+00   -2.4039257956747511E+00
C    6.2155342479503606E+00    4.3252169171395261E-01   -1.6228937863475976E+00
C    6.3429382950666042E+00   -8.7998868843805889E-01   -2.3184115030771792E+00
N    6.6908620897423949E+00   -8.5298306052655881E-01   -3.6404435127337091E+00
C    6.9351495075010741E+00   -2.0380862082132518E+00   -4.2543172455085765E+00
C    6.8372972000488792E+00   -3.2863932430058176E+00   -3.6184392129144185E+00
C    6.3893109218999395E+00   -3.3169172679884844E+00   -2.2855157706058611E+00
C    6.1315594856046998E+00   -2.1004228393161313E+00   -1.6348888818907741E+00
C    6.1916737342557502E+00    5.0751928241090083E-01   -2.1052886252785383E-01
C    6.0984299954741665E+00    1.7597216393381354E+00    4.1820221118508910E-01
C    6.0387328115642083E+00    2.9120512427339600E+00   -3.8284159038512039E-01
C    6.0726886291587183E+00    2.7558259584365161E+00   -1.7815902648504240E+00
O    4.9309193828661018E+00   -3.5872792294949387E+00   -9.4255031605634017E+00
C    5.9692981986689393E+00   -4.5406446030272507E+00   -8.9183749560852092E+00
C    5.3016843099344078E+00   -5.7542666013210333E+00   -8.2389114115299851E+00
C    4.8718836638755976E+00   -5.5649704001770459E+00   -6.7735817366469373E+00
C    6.7542610199145301E+00   -4.9419539521132378E+00   -1.0170562005347614E+01
C    7.5266945638877756E+00   -3.7882978389751170E+00   -1.0823385714564145E+01
C    1.5577760069264259E+00   -2.3662362836333273E+00   -1.5532457549219474E+00
C    1.8520474758984535E+00   -2.7983837854799445E+00   -2.9958930113778708E+00
H    1.9894033695612006E+00    7.7143381212647577E-01    1.9165350532595460E+00
H    3.4344034756628279E+00    3.2423442167078004E-01    9.8533521164403859E-01
H    2.2920684134883889E+00    1.5292419137541913E+00    3.4387663591032291E-01
H    1.7093839976321812E+00   -1.4765815144844765E+00    8.4616995002257378E-01
H    4.8402323108567591E-01   -3.5462428854369377E-01    2.8285605042342482E-01
H    2.9837638486486249E+00   -7.1838977211081589E-01   -1.4388319942489072E+00
H   -9.3871513787438840E-02    1.8721665488012673E+00   -9.4432232573253760E-01
H    4.1065456073888029E-01    4.3090235145879552E+00   -1.1055187684053118E+00
H    2.2709359874475448E+00    5.1280933200280971E+00   -2.6065783781817746E+00
H    1.1980180979789870E+00   -1.7619542268481654E+00   -6.1018481140515073E+00
H    6.5952296555524104E-01   -3.3984130653342457E+00   -7.9757956403333550E+00
H    2.4906374146688282E+00   -4.1944482599737780E+00   -9.4752256428026591E+00
H    1.1378313558858165E+01    1.6426670967261741E+00   -1.1163633186275916E+01
H    1.0176235103942501E+01   -4.1497932481352934E-01   -1.1801273703166034E+01
H    8.2105388085927036E+00   -1.2392301748547991E+00   -1.0429330022904438E+01
H    1.2433698240400208E+01    4.3860450240618771E+00   -8.8231001962539146E+00
H    1.1570580952910099E+01    2.1911820556559372E+00   -6.8755969111397812E+00
H    1.3134708943252988E+01    2.9975396784807864E+00   -6.6911377283943576E+00
H    1.1316170673266610E+01    4.0997195758941016E+00   -5.2579697602889341E+00
H    1.2048361988155921E+01    5.2271888485126770E+00   -6.4157704851382729E+00
H    1.0440702679552109E+01    4.5162762795564317E+00   -6.7539268526068490E+00
H    1.4074138826360535E+01    2.3665662336215152E+00   -8.6507826156417753E+00
H    1.2791873885955669E+01    1.3740216712893381E+00   -9.3051318832019767E+00
H    1.4232681681208001E+01    2.0905279401754706E+00   -1.1190309476678667E+01
H    1.2764239846033982E+01    3.0809906343782791E+00   -1.1364125687353402E+01
H    1.4219056896951807E+01    3.7820635250944932E+00   -1.0646762314841817E+01
H    5.9462314204428033E+00    9.2369956750214914E+00   -6.4328855046855633E+00
H    8.1846524764869066E+00    8.6997091241772768E+00   -7.4040214978355143E+00
H    8.8804193743241662E+00    6.2665351023714422E+00   -7.6969073685658635E+00
H    3.0169060207744254E+00    6.0290654008575197E+00   -6.7281302008513890E+00
H    1.7275564323848378E+00    8.6434630181798475E+00   -5.7407964892445653E+00
H    8.2364215638882610E-01    7.3590731352451595E+00   -6.5477398921230483E+00
H    1.4364785651262970E+00    5.7347030412042157E+00   -4.7219945673587453E+00
H    2.3479482310484858E+00    7.0200264968744204E+00   -3.8802977384221156E+00
H    5.7589216549717026E-01    7.1461782147938679E+00   -4.0604518279740969E+00
H    1.9963988245733926E+00    7.7413851772360767E+00   -8.4878577859420918E+00
H    3.2255153965838437E+00    8.8627819863556407E+00   -7.9087817571643528E+00
H    3.7433900931279998E+00    6.1257626355638433E+00   -9.2914071494783865E+00
H    3.9963547254045562E+00    7.7411324941865516E+00   -1.0001029974554271E+01
H    5.0417866105438689E+00    7.1830421036872156E+00   -8.6933696865079746E+00
H    1.0265796103386055E+01    8.7552713039358387E-01   -5.3596152419777940E+00
H    9.9856184998837367E+00    4.5071693088268777E-01   -1.3651043765820270E+00
H    1.0809119871849589E+01    2.0374831293473972E+00   -1.4986307397506002E+00
H    9.1148073217863779E+00    1.8575290346840296E+00   -2.0712602186759801E+00
H    1.2276611320025951E+01    9.0076133005134687E-02   -2.4909439968917200E+00
H    1.1946841172354929E+01   -3.7995620199366170E-01   -4.1761003968786214E+00
H    1.2636300378559714E+01    1.2420084391420037E+00   -3.8098518432610993E+00
H    2.8329625615150582E+00    2.0951849249452450E+00   -8.0162782581139904E+00
H    5.5712319333105356E+00    3.2877400668985568E+00   -1.0023421566284471E+01
H    5.0737938141155414E+00    2.1818286957817739E+00   -1.1351461481459825E+01
H    4.4639989286174391E+00    3.8653093152385707E+00   -1.1317061986517322E+01
H    1.5943995232163968E+00    2.0051335381354343E+00   -9.7610303572118209E+00
H    1.9536942217879947E+00    3.2415511076920924E+00   -1.1002156910280346E+01
H    2.4219630558531957E+00    1.5365417402223660E+00   -1.1280328350132800E+01
H    7.2157123836864150E+00   -1.9852169015942689E+00   -5.3084055797180767E+00
H    7.0836460170663420E+00   -4.2027772977405835E+00   -4.1584176156345913E+00
H    6.2443381304977486E+00   -4.2650711422084226E+00   -1.7610242936409435E+00
H    5.7609154233381021E+00   -2.1061222320959554E+00   -6.0738593622027914E-01
H    6.2667269541983091E+00   -3.9629872161087737E-01    3.9693642380964367E-01
H    6.0834597911596369E+00    1.8284938692534145E+00    1.5102022323752240E+00
H    5.9658241437835358E+00    3.9093357791592585E+00    5.7092811669850682E-02
H    6.0260141788027077E+00    3.6354863760234930E+00   -2.4293965642084601E+00
H    6.6117112862703893E+00   -3.9832847066182362E+00   -8.2108214441948011E+00
H    4.4458848842388825E+00   -6.0698312046280876E+00   -8.8625368687757007E+00
H    6.0233989284772713E+00   -6.5882668984363768E+00   -8.2886130825827475E+00
H    4.3900619448176377E+00   -6.4785842377384615E+00   -6.3917233725373377E+00
H    5.7451097326882703E+00   -5.3543760985988902E+00   -6.1323606601653431E+00
H    4.1514455202939802E+00   -4.7427226683389998E+00   -6.6418726916556965E+00
H    7.4520028780081686E+00   -5.7491724722686559E+00   -9.8879409079685878E+00
H    6.0435338043809601E+00   -5.3848108098315057E+00   -1.0890419933091991E+01
H    8.3275529401241322E+00   -3.4319450472499682E+00   -1.0153645477820996E+01
H    7.9941112023704530E+00   -4.1086695362013588E+00   -1.1765312143634519E+01
H    6.8498717365207735E+00   -2.9470555532167420E+00   -1.1044557551348444E+01
H    2.1228450169666178E+00   -2.9997754342574097E+00   -8.4643176853832591E-01
H    4.9005441145100842E-01   -2.5219691592023810E+00   -1.3186450703185455E+00
H    1.5823681619954437E+00   -3.8554653044282010E+00   -3.1431980669360287E+00
H    1.2781264984325911E+00   -2.1904519779037797E+00   -3.7100056757118662E+00
H    2.9222485707618167E+00   -2.6825380152940075E+00   -3.2427613432766109E+00
     &END COORD
     &KIND Dy
       BASIS_SET DZVP-MOLOPT-SR-GTH
       POTENTIAL GTH-PBE-q20
       &POTENTIAL
 4 6 0 10
  0.5102968700000000E+00 2  0.1767093508000000E+02 -0.8678777000000000E+00
 4
  0.4421234800000000E+00 2 -0.2715733840000000E+01  0.4017884260000000E+01
 -0.5187066270000000E+01
  0.4501723000000000E+00 2 -0.2773475350000000E+01  0.2201152450000000E+01
 -0.2604438700000000E+01
  0.4711651400000000E+00 1 -0.7522756100000000E+00
  0.2618074100000000E+00 1 -0.2424856414000000E+02
         # Potential name:  GTH-PBE-Q20  for symbol:  DY
         # Potential read from the potential filename: ../POTENTIAL
       &END POTENTIAL
     &END KIND
     &KIND Tb
       BASIS_SET DZVP-MOLOPT-SR-GTH
       POTENTIAL GTH-PBE-q19
     &END KIND
     &KIND Ho
       BASIS_SET DZVP-MOLOPT-SR-GTH
       POTENTIAL GTH-PBE-q21
     &END KIND
     &KIND Gd
       BASIS_SET DZVP-MOLOPT-SR-GTH
       POTENTIAL GTH-PBE-q18
     &END KIND
     &KIND Lu
       BASIS_SET DZVP-MOLOPT-SR-GTH
       POTENTIAL GTH-PBE-q25
     &END KIND
     &KIND Pm
       BASIS_SET DZVP-MOLOPT-SR-GTH
       POTENTIAL GTH-PBE-q15
     &END KIND
     &KIND Tm
       BASIS_SET DZVP-MOLOPT-SR-GTH
       POTENTIAL GTH-PBE-q23
     &END KIND
     &KIND F
       BASIS_SET DZVP-GTH-PADE
       POTENTIAL GTH-PBE-q7
     &END KIND
     &KIND S
       BASIS_SET DZVP-GTH-PADE
       POTENTIAL GTH-PBE-q6
     &END KIND
     &KIND Na
       BASIS_SET DZVP-GTH-PADE
       POTENTIAL GTH-PBE-q9
     &END KIND
     &KIND B
       BASIS_SET DZVP-GTH-PADE
       POTENTIAL GTH-PBE-q3
     &END KIND
     &KIND Cl
       BASIS_SET DZVP-GTH-PADE
       POTENTIAL GTH-PBE-q7
     &END KIND
     &KIND H
       BASIS_SET DZVP-GTH-PADE
       POTENTIAL GTH-PBE-q1
       &POTENTIAL
 1
  0.2000000000000000E+00 2 -0.4178900440000000E+01  0.7244633100000000E+00
 0
         # Potential name:  GTH-PBE-Q1  for symbol:  H
         # Potential read from the potential filename: ../POTENTIAL
       &END POTENTIAL
     &END KIND
     &KIND N
       BASIS_SET DZVP-GTH-PADE
       POTENTIAL GTH-PBE-q5
       &POTENTIAL
 2 3
  0.2837905100000000E+00 2 -0.1241522559000000E+02  0.1868095920000000E+01
 2
  0.2554050000000000E+00 1  0.1363026257000000E+02
  0.2454945300000000E+00 0
         # Potential name:  GTH-PBE-Q5  for symbol:  N
         # Potential read from the potential filename: ../POTENTIAL
       &END POTENTIAL
     &END KIND
     &KIND O
       BASIS_SET DZVP-GTH-PADE
       POTENTIAL GTH-PBE-q6
       &POTENTIAL
 2 4
  0.2445543000000000E+00 2 -0.1666721480000000E+02  0.2487311320000000E+01
 2
  0.2209559200000000E+00 1  0.1833745811000000E+02
  0.2113324700000000E+00 0
         # Potential name:  GTH-PBE-Q6  for symbol:  O
         # Potential read from the potential filename: ../POTENTIAL
       &END POTENTIAL
     &END KIND
     &KIND C
       BASIS_SET DZVP-GTH-PADE
       POTENTIAL GTH-PBE-q4
       &POTENTIAL
 2 2
  0.3384712400000000E+00 2 -0.8803673979999999E+01  0.1339210850000000E+01
 2
  0.3025757500000000E+00 1  0.9622486650000001E+01
  0.2915069400000000E+00 0
         # Potential name:  GTH-PBE-Q4  for symbol:  C
         # Potential read from the potential filename: ../POTENTIAL
       &END POTENTIAL
     &END KIND
     &TOPOLOGY
       COORD_FILE_NAME ../../Dy_L9_L25_DMF_DMF.xyz
       COORD_FILE_FORMAT  XYZ
       NUMBER_OF_ATOMS  165
       MULTIPLE_UNIT_CELL  1 1 1
     &END TOPOLOGY
   &END SUBSYS
 &END FORCE_EVAL
