 # Version information for this restart file 
 # current date 2023-04-10 15:50:16.053
 # current working dir /mnt/scratch2/users/40265864/MSc_ML_MM/ln_replacements/xyz/Dy_L9_L25_DMF_DMF/geometry_optimisation_2/run-6
 # Program compiled at                              Mon 24 Oct 18:14:20 BST 2022
 # Program compiled on                          login1.pri.kelvin2.alces.network
 # Program compiled for                                                    local
 # Source code revision number                                         svn:17462
 &GLOBAL
   PRINT_LEVEL  LOW
   PROJECT_NAME dy_complex
   RUN_TYPE  GEO_OPT
 &END GLOBAL
 &MOTION
   &GEO_OPT
     TYPE  MINIMIZATION
     OPTIMIZER  BFGS
     MAX_ITER  100
     MAX_DR     1.0000000000000001E-01
     MAX_FORCE     1.0000000000000001E-01
     RMS_DR     1.0000000000000000E-02
     RMS_FORCE     1.0000000000000000E-02
     STEP_START_VAL  26
     &BFGS
       TRUST_RADIUS     2.9999999999999999E-01
     &END BFGS
   &END GEO_OPT
 &END MOTION
 &FORCE_EVAL
   METHOD  QS
   &DFT
     BASIS_SET_FILE_NAME ../BASIS_MOLOPT_UCL
     BASIS_SET_FILE_NAME BASIS_SET
     POTENTIAL_FILE_NAME ../POTENTIAL
     UKS  T
     MULTIPLICITY  6
     CHARGE  3
     &SCF
       MAX_SCF  200
       EPS_SCF     5.0000000000000002E-05
       SCF_GUESS  RESTART
       &OT  T
         MINIMIZER  DIIS
         PRECONDITIONER  FULL_SINGLE_INVERSE
       &END OT
     &END SCF
     &MGRID
       NGRIDS  4
       CUTOFF     5.0000000000000000E+02
       REL_CUTOFF     3.0000000000000000E+01
     &END MGRID
     &XC
       DENSITY_CUTOFF     1.0000000000000000E-10
       GRADIENT_CUTOFF     1.0000000000000000E-10
       TAU_CUTOFF     1.0000000000000000E-10
       &XC_FUNCTIONAL  NO_SHORTCUT
         &PBE  T
         &END PBE
       &END XC_FUNCTIONAL
     &END XC
   &END DFT
   &SUBSYS
     &CELL
       A     2.5000000000000004E+01    0.0000000000000000E+00    0.0000000000000000E+00
       B     0.0000000000000000E+00    2.5000000000000004E+01    0.0000000000000000E+00
       C     0.0000000000000000E+00    0.0000000000000000E+00    2.5000000000000004E+01
       PERIODIC  XYZ
       MULTIPLE_UNIT_CELL  1 1 1
     &END CELL
     &COORD
C    2.3552920829125270E+00    5.7853825140600090E-01    8.9910869208405486E-01
C    1.5591633736925943E+00   -5.6651138447677230E-01    2.4371058836671161E-01
C    1.9078608320890058E+00   -9.1435328430155649E-01   -1.2190604361107824E+00
O    1.1147004741356927E+00   -5.9763898139328989E-02   -2.1557995727436250E+00
C    1.4484692501674159E+00    1.2497998713375214E+00   -2.3208462840571271E+00
C    7.0254521762646116E-01    2.2286376130289605E+00   -1.5975390659623512E+00
C    9.8734004554855770E-01    3.5992371819399196E+00   -1.6935795416951265E+00
C    2.0329929295197919E+00    4.0701572381283029E+00   -2.5295771873199935E+00
C    2.7530081586232358E+00    3.1208528696334144E+00   -3.2683296600926721E+00
C    2.4659054709056814E+00    1.7206973133646049E+00   -3.1926545598734837E+00
C    3.2958168006712030E+00    1.0969899522973701E+00   -4.2373648142937785E+00
N    3.1114200883492460E+00   -1.2196131061648323E-01   -4.7597566581179764E+00
C    3.8246261515702979E+00   -6.0991472452724738E-01   -5.7936597962813829E+00
C    3.2810978078688722E+00   -1.6343346120747495E+00   -6.6992305162313190E+00
C    1.9653711759269252E+00   -2.1018917417627825E+00   -6.7924574965694138E+00
C    1.6720590014546268E+00   -2.9957947892261982E+00   -7.8556696949506346E+00
C    2.6941498538695092E+00   -3.4490322824288699E+00   -8.6996767796838981E+00
C    4.0536743099680281E+00   -3.0081822723830864E+00   -8.5757215250691576E+00
C    4.3344556370759388E+00   -2.0007829560485351E+00   -7.5958608551745588E+00
C    5.4469550877719701E+00   -1.0759312660297904E+00   -7.2814929454655664E+00
N    5.1219206558595074E+00   -3.1641137297931737E-01   -6.1469911870970746E+00
Dy    6.4104301207902772E+00    1.3194660394374085E+00   -4.9883723411012433E+00
N    4.1987084286612468E+00    2.0287206279348338E+00   -4.7554640562236914E+00
C    3.8490207634923208E+00    3.2724876487225569E+00   -4.2587618900511650E+00
N    4.3448243547169181E+00    4.4450613878529106E+00   -4.6711962879357829E+00
C    5.4434104483980610E+00    4.5846890135441054E+00   -5.4323434427003807E+00
N    6.4081962532120276E+00    3.5979861822519847E+00   -5.6603072622371684E+00
C    7.3287854279681355E+00    4.1177269852802176E+00   -6.5296425155017364E+00
N    8.2772181082758660E+00    3.4810787431550687E+00   -7.2409308233760354E+00
C    8.2391969744376610E+00    2.1984798460226593E+00   -7.5873766384084309E+00
N    7.2924298654726174E+00    1.2537362654516695E+00   -7.1572861849962468E+00
C    7.3341064408046757E+00    1.7731403689535458E-01   -8.0165870632930325E+00
N    6.5253600985021754E+00   -9.1114011397430450E-01   -8.0627868198383972E+00
C    8.4171104089238256E+00    3.8599632452601662E-01   -9.0068174457239945E+00
C    9.0645659540554089E+00    1.6092003950728988E+00   -8.6591450294699897E+00
C    1.0185123698293465E+01    2.0750836590392829E+00   -9.4060153396798061E+00
C    1.0564080302133050E+01    1.2922550009111100E+00   -1.0547094131710846E+01
C    9.8628371772121692E+00    1.3264986577008539E-01   -1.0912635147668864E+01
C    8.7727684429458446E+00   -3.5020780098611143E-01   -1.0144544810038630E+01
O    1.0789365586694741E+01    3.2486277081284567E+00   -9.1119485723048861E+00
C    1.2196397476658932E+01    3.3353062030915557E+00   -8.5994553116360173E+00
C    1.2119930447259314E+01    3.1471844092025769E+00   -7.0741916373319622E+00
C    1.1434994826217459E+01    4.3103381344893350E+00   -6.3321677927550715E+00
C    1.3194976024144397E+01    2.4078932682364593E+00   -9.3022717936987824E+00
C    1.3622927513946726E+01    2.8670785530954137E+00   -1.0708742093220330E+01
C    7.0930713165711019E+00    5.5634842664012476E+00   -6.7110607355480747E+00
C    5.8301946835473908E+00    5.8358034049723795E+00   -6.1043737813110877E+00
C    5.3402435484074378E+00    7.1802106541870048E+00   -6.1390016352031083E+00
C    6.2766066007924248E+00    8.2028280975800989E+00   -6.5203301405936731E+00
C    7.5323981551341808E+00    7.9051387109017304E+00   -7.0556866339734743E+00
C    7.9377019000775553E+00    6.5478942681361270E+00   -7.2307709902638795E+00
O    4.1027712051314520E+00    7.6261485033749965E+00   -5.8584632445939171E+00
C    2.9358340507760348E+00    7.1235176522671528E+00   -6.6616366525277737E+00
C    1.6917065290849367E+00    7.5574207151327606E+00   -5.8878709306174342E+00
C    1.5016985258480076E+00    6.8319752415131925E+00   -4.5505921610605728E+00
C    3.0012644005125324E+00    7.7771985583851322E+00   -8.0574600223157855E+00
C    3.9994440604095645E+00    7.1684200668112004E+00   -9.0583398220581408E+00
O    8.5921973383187566E+00    1.5807325911120622E+00   -4.3478678555226420E+00
C    9.7916298308490397E+00    1.1458669464918814E+00   -4.3971392612722591E+00
N    1.0575296338406106E+01    9.8827176100468783E-01   -3.3225968235540004E+00
C    1.0100049927435135E+01    1.3634021107156329E+00   -1.9775837709071569E+00
C    1.1953476263746376E+01    4.5996715807890559E-01   -3.4647390023125464E+00
O    4.7864457615068066E+00    2.7350986691363905E+00   -7.9087832909422522E+00
C    3.7486651742557497E+00    2.4637268965088142E+00   -8.5505449606548822E+00
N    3.6001633569523985E+00    2.5843502724882388E+00   -9.8987698243161208E+00
C    4.7279861483253391E+00    3.0097572707405837E+00   -1.0729812427303921E+01
C    2.3152428789411288E+00    2.3304036483486419E+00   -1.0545781395393666E+01
N    6.1731840779095357E+00    1.5442291909536654E+00   -2.3858263863851676E+00
C    6.2236720486792372E+00    4.2454035575746063E-01   -1.6077978211409403E+00
C    6.3464934669477646E+00   -8.8619993297432942E-01   -2.3033450017977044E+00
N    6.6856681218131930E+00   -8.6622998025097142E-01   -3.6286804489868469E+00
C    6.9121514595527378E+00   -2.0528490096788934E+00   -4.2558388359906916E+00
C    6.8311528744041334E+00   -3.2989398020675447E+00   -3.6037500134526277E+00
C    6.3995004806569913E+00   -3.3237355099127162E+00   -2.2623783290698296E+00
C    6.1464211510911326E+00   -2.1037723935965342E+00   -1.6123281088021433E+00
C    6.2159626294492565E+00    4.9936543152409535E-01   -1.9369272153561801E-01
C    6.1055495514816602E+00    1.7526632156413269E+00    4.3409269774417730E-01
C    6.0376806283620095E+00    2.9046854072458825E+00   -3.6591091120593272E-01
C    6.0659421320636486E+00    2.7469266918027202E+00   -1.7670501229287456E+00
O    4.9196171835252400E+00   -3.6118860704451015E+00   -9.4265374259132777E+00
C    5.9726730273846451E+00   -4.5429936673774653E+00   -8.9173268730315254E+00
C    5.3028659397253488E+00   -5.7569182903346974E+00   -8.2364200551206448E+00
C    4.8723479831167467E+00   -5.5610712715253268E+00   -6.7730913586721462E+00
C    6.7570122435701307E+00   -4.9377368165331665E+00   -1.0172676853987284E+01
C    7.5233237166130733E+00   -3.7804480377571834E+00   -1.0825914400554977E+01
C    1.5476714285686630E+00   -2.3667896636624493E+00   -1.5606760145804119E+00
C    1.8471652450269982E+00   -2.8028506904678565E+00   -3.0031412343265438E+00
H    1.9685343297993696E+00    7.7804442246652683E-01    1.9124887650548605E+00
H    3.4246379535037352E+00    3.2155054872911182E-01    9.9838293337534845E-01
H    2.2858846981000474E+00    1.5244338006652953E+00    3.3356736344158028E-01
H    1.7008634149322415E+00   -1.4796983680828830E+00    8.4702375549136866E-01
H    4.7699561122754164E-01   -3.5334219997579519E-01    2.8316180513077865E-01
H    2.9784420017274233E+00   -7.2780538493773661E-01   -1.4386583416099841E+00
H   -8.7372975628246488E-02    1.8731831965150516E+00   -9.3474371027558489E-01
H    4.0015201405917045E-01    4.3133496975051724E+00   -1.1101487370245651E+00
H    2.2507680096583389E+00    5.1377394449945601E+00   -2.6135153022676447E+00
H    1.1930808152752035E+00   -1.7545259474820725E+00   -6.0973996228069591E+00
H    6.5652747553275448E-01   -3.3818983184980564E+00   -7.9850465322737909E+00
H    2.4938833058971523E+00   -4.1982554336022888E+00   -9.4665620213614599E+00
H    1.1395035565556277E+01    1.6337439660117774E+00   -1.1163791980852961E+01
H    1.0175392779115025E+01   -4.1390031624555751E-01   -1.1807545380901537E+01
H    8.2075479267341951E+00   -1.2350520741315187E+00   -1.0444396729923648E+01
H    1.2442801611888482E+01    4.3867058260590301E+00   -8.8322314521540868E+00
H    1.1591465193700678E+01    2.1897312262045854E+00   -6.8891088284959254E+00
H    1.3148016762584703E+01    3.0132987285141821E+00   -6.6933076325631671E+00
H    1.1306057936401807E+01    4.0815927106647010E+00   -5.2583249539138670E+00
H    1.2040121211045589E+01    5.2307374070736614E+00   -6.4050787333621297E+00
H    1.0436737852407751E+01    4.5110827635305144E+00   -6.7538743036426698E+00
H    1.4088758108606227E+01    2.3593851688960994E+00   -8.6576665276511910E+00
H    1.2791303878913565E+01    1.3793429027748343E+00   -9.3167528482896582E+00
H    1.4253793048954261E+01    2.1006829155155535E+00   -1.1194790839092448E+01
H    1.2760941714680420E+01    3.0679396951236519E+00   -1.1371314679779188E+01
H    1.4212963986760434E+01    3.7996529722856347E+00   -1.0659445267402363E+01
H    5.9347679582949189E+00    9.2366869303025823E+00   -6.4363734101708836E+00
H    8.1824804759387870E+00    8.7133263153115301E+00   -7.3993566480089932E+00
H    8.8990589696773288E+00    6.2904898099108788E+00   -7.6859902795224828E+00
H    3.0108509174136318E+00    6.0244661098469008E+00   -6.7197258966733102E+00
H    1.7271394755631770E+00    8.6512474808148507E+00   -5.7415864598899269E+00
H    8.2188461944634539E-01    7.3605342580048934E+00   -6.5379973601981574E+00
H    1.4288510992854546E+00    5.7409842244241496E+00   -4.7091959226539553E+00
H    2.3501200768310926E+00    7.0287046416437411E+00   -3.8727178037736438E+00
H    5.7695307270549878E-01    7.1688616538033978E+00   -4.0515328764978733E+00
H    1.9888540616006645E+00    7.7313024939352415E+00   -8.4966494364840663E+00
H    3.2120621748012961E+00    8.8548787395885498E+00   -7.9141422514842965E+00
H    3.7352247969580943E+00    6.1234796485787033E+00   -9.3067769506894802E+00
H    4.0072080237603354E+00    7.7490241863637515E+00   -9.9976400365302389E+00
H    5.0357835809003815E+00    7.1729284383970970E+00   -8.6817061032329903E+00
H    1.0261546353059604E+01    8.6325706026250038E-01   -5.3592294151447133E+00
H    9.9929874129423517E+00    4.6262545126106930E-01   -1.3478623395376905E+00
H    1.0812144624356815E+01    2.0503361862318878E+00   -1.4950334748242657E+00
H    9.1252650842855605E+00    1.8591617908127263E+00   -2.0727745857463429E+00
H    1.2289659878985917E+01    7.9473998876202295E-02   -2.4884374924641453E+00
H    1.1961291076437933E+01   -3.7460936985388710E-01   -4.1877920619207645E+00
H    1.2646923020561093E+01    1.2489503475774948E+00   -3.8023159057443001E+00
H    2.8242636750322365E+00    2.0970181241294297E+00   -8.0472078985429825E+00
H    5.5517726443384463E+00    3.2888518640061468E+00   -1.0056724685902083E+01
H    5.0561799562136223E+00    2.1841283330891170E+00   -1.1384483497493706E+01
H    4.4471054170438427E+00    3.8750135806971713E+00   -1.1350530736316397E+01
H    1.5875888545225982E+00    2.0016023852404272E+00   -9.7860938074475552E+00
H    1.9302026376562034E+00    3.2501809773265409E+00   -1.1022665458709467E+01
H    2.4011118196933867E+00    1.5420601261101154E+00   -1.1310075833051593E+01
H    7.1641848890050639E+00   -2.0062634927484559E+00   -5.3247668604390226E+00
H    7.0746841006631485E+00   -4.2177403976006520E+00   -4.1463127279835366E+00
H    6.2556288551026737E+00   -4.2700880035180058E+00   -1.7320740496510953E+00
H    5.7681460620836393E+00   -2.0956798772196068E+00   -5.8787142357178745E-01
H    6.2870432241948242E+00   -4.0520035030178553E-01    4.0982075805517348E-01
H    6.0870542606603344E+00    1.8231074966729659E+00    1.5259206579329925E+00
H    5.9642994513676024E+00    3.9025273947705585E+00    7.5538045384193758E-02
H    5.9999197501073978E+00    3.6243655626632187E+00   -2.4139803448999522E+00
H    6.6001937638029835E+00   -3.9697680681002669E+00   -8.2090336666207140E+00
H    4.4463209966946957E+00   -6.0725577340967067E+00   -8.8567647397944569E+00
H    6.0277927707688246E+00   -6.5888882521863161E+00   -8.2809395973750242E+00
H    4.3767298050295969E+00   -6.4670474226888350E+00   -6.3863800434896607E+00
H    5.7477214098821490E+00   -5.3603971997642530E+00   -6.1263261911046554E+00
H    4.1597465172410697E+00   -4.7297267238418605E+00   -6.6470339458105556E+00
H    7.4526477718417157E+00   -5.7389631159415107E+00   -9.8802223534247506E+00
H    6.0440502023239082E+00   -5.3821548932383090E+00   -1.0889254588592374E+01
H    8.3368954237820301E+00   -3.4272440188001254E+00   -1.0164436159899692E+01
H    7.9711417569689589E+00   -4.1026414068551951E+00   -1.1783424554805769E+01
H    6.8413602387862253E+00   -2.9378245836761123E+00   -1.1037747520857335E+01
H    2.1125713425147006E+00   -3.0021984862682345E+00   -8.5545110204662522E-01
H    4.8335569230668829E-01   -2.5297854091665073E+00   -1.3250350967213147E+00
H    1.5620894006831529E+00   -3.8592626307886033E+00   -3.1487511902399761E+00
H    1.2824614713717855E+00   -2.1856521838956406E+00   -3.7207966034721807E+00
H    2.9217653761804279E+00   -2.6977481158197691E+00   -3.2446917115295499E+00
     &END COORD
     &KIND Dy
       BASIS_SET DZVP-MOLOPT-SR-GTH
       POTENTIAL GTH-PBE-q20
       &POTENTIAL
 4 6 0 10
  0.5102968700000000E+00 2  0.1767093508000000E+02 -0.8678777000000000E+00
 4
  0.4421234800000000E+00 2 -0.2715733840000000E+01  0.4017884260000000E+01
 -0.5187066270000000E+01
  0.4501723000000000E+00 2 -0.2773475350000000E+01  0.2201152450000000E+01
 -0.2604438700000000E+01
  0.4711651400000000E+00 1 -0.7522756100000000E+00
  0.2618074100000000E+00 1 -0.2424856414000000E+02
         # Potential name:  GTH-PBE-Q20  for symbol:  DY
         # Potential read from the potential filename: ../POTENTIAL
       &END POTENTIAL
     &END KIND
     &KIND Tb
       BASIS_SET DZVP-MOLOPT-SR-GTH
       POTENTIAL GTH-PBE-q19
     &END KIND
     &KIND Ho
       BASIS_SET DZVP-MOLOPT-SR-GTH
       POTENTIAL GTH-PBE-q21
     &END KIND
     &KIND Gd
       BASIS_SET DZVP-MOLOPT-SR-GTH
       POTENTIAL GTH-PBE-q18
     &END KIND
     &KIND Lu
       BASIS_SET DZVP-MOLOPT-SR-GTH
       POTENTIAL GTH-PBE-q25
     &END KIND
     &KIND Pm
       BASIS_SET DZVP-MOLOPT-SR-GTH
       POTENTIAL GTH-PBE-q15
     &END KIND
     &KIND Tm
       BASIS_SET DZVP-MOLOPT-SR-GTH
       POTENTIAL GTH-PBE-q23
     &END KIND
     &KIND F
       BASIS_SET DZVP-GTH-PADE
       POTENTIAL GTH-PBE-q7
     &END KIND
     &KIND S
       BASIS_SET DZVP-GTH-PADE
       POTENTIAL GTH-PBE-q6
     &END KIND
     &KIND Na
       BASIS_SET DZVP-GTH-PADE
       POTENTIAL GTH-PBE-q9
     &END KIND
     &KIND B
       BASIS_SET DZVP-GTH-PADE
       POTENTIAL GTH-PBE-q3
     &END KIND
     &KIND Cl
       BASIS_SET DZVP-GTH-PADE
       POTENTIAL GTH-PBE-q7
     &END KIND
     &KIND H
       BASIS_SET DZVP-GTH-PADE
       POTENTIAL GTH-PBE-q1
       &POTENTIAL
 1
  0.2000000000000000E+00 2 -0.4178900440000000E+01  0.7244633100000000E+00
 0
         # Potential name:  GTH-PBE-Q1  for symbol:  H
         # Potential read from the potential filename: ../POTENTIAL
       &END POTENTIAL
     &END KIND
     &KIND N
       BASIS_SET DZVP-GTH-PADE
       POTENTIAL GTH-PBE-q5
       &POTENTIAL
 2 3
  0.2837905100000000E+00 2 -0.1241522559000000E+02  0.1868095920000000E+01
 2
  0.2554050000000000E+00 1  0.1363026257000000E+02
  0.2454945300000000E+00 0
         # Potential name:  GTH-PBE-Q5  for symbol:  N
         # Potential read from the potential filename: ../POTENTIAL
       &END POTENTIAL
     &END KIND
     &KIND O
       BASIS_SET DZVP-GTH-PADE
       POTENTIAL GTH-PBE-q6
       &POTENTIAL
 2 4
  0.2445543000000000E+00 2 -0.1666721480000000E+02  0.2487311320000000E+01
 2
  0.2209559200000000E+00 1  0.1833745811000000E+02
  0.2113324700000000E+00 0
         # Potential name:  GTH-PBE-Q6  for symbol:  O
         # Potential read from the potential filename: ../POTENTIAL
       &END POTENTIAL
     &END KIND
     &KIND C
       BASIS_SET DZVP-GTH-PADE
       POTENTIAL GTH-PBE-q4
       &POTENTIAL
 2 2
  0.3384712400000000E+00 2 -0.8803673979999999E+01  0.1339210850000000E+01
 2
  0.3025757500000000E+00 1  0.9622486650000001E+01
  0.2915069400000000E+00 0
         # Potential name:  GTH-PBE-Q4  for symbol:  C
         # Potential read from the potential filename: ../POTENTIAL
       &END POTENTIAL
     &END KIND
     &TOPOLOGY
       COORD_FILE_NAME ../../Dy_L9_L25_DMF_DMF.xyz
       COORD_FILE_FORMAT  XYZ
       NUMBER_OF_ATOMS  165
       MULTIPLE_UNIT_CELL  1 1 1
     &END TOPOLOGY
   &END SUBSYS
 &END FORCE_EVAL
