 # Version information for this restart file 
 # current date 2023-04-10 15:31:38.192
 # current working dir /mnt/scratch2/users/40265864/MSc_ML_MM/ln_replacements/xyz/Dy_L9_L2/geometry_optimisation_2/run-6
 # Program compiled at                              Mon 24 Oct 18:14:20 BST 2022
 # Program compiled on                          login1.pri.kelvin2.alces.network
 # Program compiled for                                                    local
 # Source code revision number                                         svn:17462
 &GLOBAL
   PRINT_LEVEL  LOW
   PROJECT_NAME dy_complex
   RUN_TYPE  GEO_OPT
 &END GLOBAL
 &MOTION
   &GEO_OPT
     TYPE  MINIMIZATION
     OPTIMIZER  BFGS
     MAX_ITER  100
     MAX_DR     1.0000000000000001E-01
     MAX_FORCE     1.0000000000000001E-01
     RMS_DR     1.0000000000000000E-02
     RMS_FORCE     1.0000000000000000E-02
     STEP_START_VAL  14
     &BFGS
       TRUST_RADIUS     2.9999999999999999E-01
     &END BFGS
   &END GEO_OPT
 &END MOTION
 &FORCE_EVAL
   METHOD  QS
   &DFT
     BASIS_SET_FILE_NAME ../BASIS_MOLOPT_UCL
     BASIS_SET_FILE_NAME BASIS_SET
     POTENTIAL_FILE_NAME ../POTENTIAL
     UKS  T
     MULTIPLICITY  6
     CHARGE  3
     &SCF
       MAX_SCF  200
       EPS_SCF     5.0000000000000002E-05
       SCF_GUESS  RESTART
       &OT  T
         MINIMIZER  DIIS
         PRECONDITIONER  FULL_SINGLE_INVERSE
       &END OT
     &END SCF
     &MGRID
       NGRIDS  4
       CUTOFF     5.0000000000000000E+02
       REL_CUTOFF     3.0000000000000000E+01
     &END MGRID
     &XC
       DENSITY_CUTOFF     1.0000000000000000E-10
       GRADIENT_CUTOFF     1.0000000000000000E-10
       TAU_CUTOFF     1.0000000000000000E-10
       &XC_FUNCTIONAL  NO_SHORTCUT
         &PBE  T
         &END PBE
       &END XC_FUNCTIONAL
     &END XC
   &END DFT
   &SUBSYS
     &CELL
       A     2.5000000000000004E+01    0.0000000000000000E+00    0.0000000000000000E+00
       B     0.0000000000000000E+00    2.5000000000000004E+01    0.0000000000000000E+00
       C     0.0000000000000000E+00    0.0000000000000000E+00    2.5000000000000004E+01
       PERIODIC  XYZ
       MULTIPLE_UNIT_CELL  1 1 1
     &END CELL
     &COORD
C    8.4134302267311085E+00    1.0815017667501097E+00   -8.7451808486914047E+00
C    6.9617029002441919E+00    6.3862765474634731E-01   -8.6627050705749014E+00
O    6.2771673453170127E+00    1.0291880285151103E+00   -9.9109990766322547E+00
C    4.9546132733731501E+00    6.7563605216910561E-01   -9.9449568941395565E+00
C    3.9886393647311298E+00    1.4716194636559379E+00   -9.2875860313213146E+00
C    2.6437496240610301E+00    1.0828965556623538E+00   -9.3692239950712981E+00
C    2.2373778030216727E+00   -5.8179214080864579E-02   -1.0094562383167041E+01
C    3.1728696988226761E+00   -8.5030967975296312E-01   -1.0774842815088729E+01
C    4.5471902642560629E+00   -4.8248207943179022E-01   -1.0694470744484320E+01
O    5.4996968624653171E+00   -1.2642486159099351E+00   -1.1277406290538671E+01
C    5.7023829837407654E+00   -1.0157533444145057E+00   -1.2716425384197869E+01
C    6.7134882792200479E+00   -2.0250442689997552E+00   -1.3260599200219673E+01
C    7.9232124452073516E-01   -2.3617893922651051E-01   -9.7992803778933872E+00
N    8.3261146118080304E-02   -1.2289887648811060E+00   -1.0357642072343248E+01
C   -1.1609755063945710E+00   -1.5283300332728718E+00   -9.9698034993505686E+00
N   -1.9281510852324895E+00   -9.1301333269456242E-01   -8.9944307108407351E+00
Dy   -1.8925884678823262E+00    1.3809532300030762E+00   -8.0687172169608239E+00
N    3.6951578746258418E-01    6.8401365742666786E-01   -8.8686743230051022E+00
C    1.4866822709030738E+00    1.4539217947282488E+00   -8.5466963367262672E+00
N    1.6791799230788675E+00    2.2073096908767207E+00   -7.4590455957600206E+00
C    1.0277760938242970E+00    1.9166932627927156E+00   -6.3175756443338660E+00
C    1.7881550186922590E+00    1.9255312823228430E+00   -5.0742598227824969E+00
C    3.1186763255664127E+00    2.3094034514468782E+00   -4.8303325750428998E+00
C    3.7504960250548800E+00    1.8327863836984095E+00   -3.6629081992184207E+00
O    5.0412174290539502E+00    2.1665262014708793E+00   -3.3694896040633955E+00
C    6.0695035783866196E+00    1.4294560189753898E+00   -4.1172420374516472E+00
C    7.4332624823806448E+00    1.9852835657458467E+00   -3.7389150013664842E+00
C    3.0159604434157941E+00    1.0125479587404689E+00   -2.7344790252681372E+00
C    1.6544758001867821E+00    6.5682528602139401E-01   -2.9897958840659968E+00
C    1.0630239446050804E+00    1.1130503057357233E+00   -4.1773684912300704E+00
C   -2.0445709821291710E-01    7.6634778903057932E-01   -4.8881616170355482E+00
N   -1.1275494249346825E+00   -2.3758653133566135E-02   -4.3136301017518059E+00
C   -2.1646425029325465E+00   -5.2419470654439460E-01   -5.0014120384602716E+00
N   -2.4627848874585170E+00   -3.5143233094489296E-01   -6.3407428605400940E+00
C   -3.5452770396229689E+00   -1.1997132335646916E+00   -6.6044667698167014E+00
N   -3.9176115521184944E+00   -1.7001968098114164E+00   -7.7962668477097772E+00
C   -3.0670560734665209E+00   -1.6936673652799710E+00   -8.8371806596442468E+00
C   -3.1114684415438552E+00   -2.7652009023543460E+00   -9.8341206901180680E+00
C   -1.8690313058255710E+00   -2.7112017798554069E+00   -1.0504761191408367E+01
C   -1.4631777239761818E+00   -3.7474491985919061E+00   -1.1354796850865537E+01
C   -2.3415652131049862E+00   -4.8568032730049095E+00   -1.1525605721917266E+01
O   -1.9350271165506248E+00   -5.9277155155107888E+00   -1.2261842675199398E+01
C   -1.3460391358833901E+00   -6.9964915697659293E+00   -1.1419122017123822E+01
C   -9.4049746009158319E-01   -8.1583708950750076E+00   -1.2307585751500612E+01
C   -3.6462136489390176E+00   -4.8640913776834909E+00   -1.0917621779776356E+01
C   -4.0227084530720649E+00   -3.8123224155386088E+00   -1.0041048501858059E+01
O   -4.4577096547211061E+00   -5.9517156014429231E+00   -1.1097746599290570E+01
C   -5.4047126594668917E+00   -5.8455808524990145E+00   -1.2233494111748401E+01
C   -6.2676240854045924E+00   -7.0990963732601848E+00   -1.2274604775016345E+01
C   -4.0594189004736148E+00   -1.8079520230948061E+00   -5.3800934660465289E+00
C   -3.1075684589898374E+00   -1.4902267943234215E+00   -4.3843344602960297E+00
C   -3.0788870503027863E+00   -2.1999321902307321E+00   -3.1800277155760708E+00
C   -4.0518404277948701E+00   -3.2214094929043022E+00   -2.9781131408795751E+00
C   -5.1390269424726300E+00   -3.4031779170143395E+00   -3.9113036300735970E+00
C   -5.0989564004986843E+00   -2.7278030714157637E+00   -5.1536153419306263E+00
O   -6.1345650683717512E+00   -4.3150450072729507E+00   -3.6885993493599605E+00
C   -7.1427578367929589E+00   -3.9253053024157727E+00   -2.6725317866345200E+00
C   -8.2084372478249463E+00   -5.0244252500333992E+00   -2.5746181643878532E+00
O   -3.8920612880910737E+00   -4.0463091397757784E+00   -1.9091970773550395E+00
C   -3.3673661442411857E+00   -5.3754770042456181E+00   -2.3274711541800026E+00
C   -3.1802294524610093E+00   -6.2429345537023373E+00   -1.0963525105017395E+00
N   -1.9968600016030719E-01    1.2737811877464764E+00   -6.1655624266311797E+00
O    3.6959968508798817E+00    5.3881446897200247E-01   -1.6579989705580407E+00
C    3.2854950328641905E+00    1.0538649954519241E+00   -3.4072932800431471E-01
C    4.1147896350946152E+00    3.6050462676389178E-01    7.2702799630310333E-01
N   -4.1104499608863927E+00    2.0717808215273252E+00   -7.2014539506991548E+00
C   -5.3433060320220269E+00    1.6187060267950328E+00   -7.6228520532765476E+00
N   -5.7095089130955783E+00    1.2588769213418096E+00   -8.8630463383705269E+00
C   -4.8784489482020614E+00    1.2909079243021755E+00   -9.9226923573585619E+00
N   -3.4878758431525156E+00    1.3764764753383794E+00   -9.9080612927313698E+00
C   -3.0783368622520562E+00    1.4583143019261731E+00   -1.1222578167750237E+01
N   -1.8725532460665784E+00    1.7744399260185222E+00   -1.1715878744324943E+01
C   -1.0699981728148980E+00    2.6171230753544910E+00   -1.1061149533633692E+01
N   -1.2217746543395818E+00    3.0250150230745505E+00   -9.7359522573961357E+00
C   -5.2238056027835855E-01    4.1997459665236336E+00   -9.5932777110519716E+00
N   -3.9602054035834461E-01    4.9621013556887430E+00   -8.5062647635133040E+00
C   -1.0230680218127914E+00    4.7067290076030641E+00   -7.3493075897602189E+00
N   -1.8664308787946009E+00    3.6367770839245779E+00   -7.0528970416945267E+00
C   -2.3514170713304243E+00    3.8429152200722330E+00   -5.7792503006557618E+00
N   -3.3910635520638590E+00    3.2336569001564457E+00   -5.1785099222724380E+00
C   -4.2637508273009850E+00    2.4845991518227359E+00   -5.8677445815637510E+00
C   -5.6176340143541657E+00    2.1942700198421399E+00   -5.3850428166045070E+00
C   -6.3292274140370708E+00    1.7211672501438355E+00   -6.5248905895454374E+00
C   -7.7128373698214157E+00    1.5203946011922915E+00   -6.5282717123936660E+00
C   -8.4145851613461105E+00    1.8175792525214201E+00   -5.3280102351610559E+00
C   -7.7280731384894406E+00    2.2426535735199122E+00   -4.1812882674548630E+00
C   -6.3053380671687469E+00    2.4016239189397339E+00   -4.1532251958447919E+00
O   -5.6915089311312546E+00    2.8232418345258643E+00   -3.0149630061442911E+00
C   -5.4391470445661039E+00    1.8466118157375908E+00   -1.8989144083161045E+00
C   -4.1529850744571633E+00    1.0644923407823115E+00   -2.2223712839706975E+00
C   -2.8570406559945076E+00    1.8365536503688971E+00   -1.9200221431231534E+00
C   -6.6506325864262825E+00    9.6277032461349110E-01   -1.5586744630862523E+00
C   -7.7960467708790482E+00    1.7145945887877150E+00   -8.4187726050528111E-01
C   -1.6828152688792242E+00    5.0039378738669500E+00   -5.1591527236195418E+00
C   -9.0106143930032601E-01    5.5782510795159057E+00   -6.1889002323309992E+00
C   -1.5558774353041238E-01    6.7648445556331920E+00   -5.9817323830584312E+00
C   -1.3173586694015416E-01    7.2939726851283089E+00   -4.6451061316808691E+00
C   -8.7177857095044020E-01    6.6760259000413233E+00   -3.6238563016909140E+00
C   -1.6863770403238756E+00    5.5265480946425516E+00   -3.8623026567038243E+00
O    4.0240842222475265E-01    7.2947936326424747E+00   -7.0740044029475069E+00
C    1.6619933254520955E+00    8.0723521775064491E+00   -7.0897502581035194E+00
C    2.7736337711426202E+00    7.0518408905629659E+00   -7.3793323995776481E+00
C    3.0714834921735816E+00    6.0256282699068775E+00   -6.2537108197943967E+00
C    1.4908752425715586E+00    9.0850624697163731E+00   -8.2245801989434071E+00
C    2.0761685950999312E-01    9.9312130451949745E+00   -8.1305726508540808E+00
C    1.0719206646164331E-01    4.5691120261827329E+00   -1.0891267357043084E+01
C   -1.1884731261816632E-01    3.4754952394369196E+00   -1.1768999844887373E+01
C    3.2161052478644514E-01    3.5174933015931806E+00   -1.3115407105104358E+01
C    8.2344784133552318E-01    4.7649434390661281E+00   -1.3585831293500354E+01
C    9.8977526726314524E-01    5.8615061936757789E+00   -1.2719157146409607E+01
C    6.7101374661180557E-01    5.7710468369534693E+00   -1.1336620108478588E+01
O    2.8854782086302622E-01    2.4495585272866118E+00   -1.3964714546262758E+01
C    1.2870561355820695E+00    1.3674092675363243E+00   -1.3726277241151507E+01
C    8.6316346875294014E-01    1.3257352256281024E-01   -1.4525049739640451E+01
C   -4.4293894762471031E-01   -5.4414409143769049E-01   -1.4079700845999307E+01
C    2.6923192729352916E+00    1.8754132066894531E+00   -1.4123760717539023E+01
C    3.4775731893686244E+00    2.5234150398005535E+00   -1.2966706922045685E+01
C   -4.2190775842696686E+00    1.3131788536579558E+00   -1.2133738682180642E+01
C   -5.3612400530735034E+00    1.2677590924998803E+00   -1.1303040621396613E+01
C   -6.6569024499370837E+00    1.3525252901199165E+00   -1.1873154083981067E+01
C   -6.7397743972365189E+00    1.4216216928321630E+00   -1.3307453048318411E+01
C   -5.5861942266647331E+00    1.4455172574294741E+00   -1.4103282226745108E+01
C   -4.2840570412916783E+00    1.3956677676595859E+00   -1.3527736099094573E+01
O   -7.6905974822323655E+00    1.4480174320311572E+00   -1.1035590396423409E+01
C   -9.0590224195686808E+00    1.0090718373899643E+00   -1.1389779869570658E+01
C   -9.3154773246092439E+00   -2.0478527602002769E-01   -1.0480177545465759E+01
C   -8.3407301446055655E+00   -1.3932309154045452E+00   -1.0672416537431337E+01
C   -9.9768877500816977E+00    2.2004175129299695E+00   -1.1103266521558496E+01
C   -9.5610030830949260E+00    3.5182657106161561E+00   -1.1813707707715817E+01
H    8.8971247510084606E+00    9.5914565210349456E-01   -7.7592732550597692E+00
H    8.9705263358393896E+00    4.8116644172951134E-01   -9.4808826764544349E+00
H    8.4826475443776737E+00    2.1460342991721117E+00   -9.0313861939724873E+00
H    6.8847656984774517E+00   -4.5833702483411237E-01   -8.5524398927958636E+00
H    6.4416079007341684E+00    1.1172399489869183E+00   -7.8090183379755596E+00
H    4.2911670029806821E+00    2.3837042589012163E+00   -8.7653197879328211E+00
H    2.8789225239934000E+00   -1.7677611232647432E+00   -1.1297319832458212E+01
H    4.7224405686065341E+00   -1.1046519535099635E+00   -1.3226824206194092E+01
H    6.0638466999580869E+00    2.0967557598212404E-02   -1.2830799244959554E+01
H    7.3905964421619323E+00   -2.3435611123488478E+00   -1.2450758546530206E+01
H    6.2328487171837939E+00   -2.9265545198604803E+00   -1.3678961230536554E+01
H    7.3288908464258444E+00   -1.5625053707609040E+00   -1.4049930257797277E+01
H    3.6542335035774984E+00    2.9823650823574259E+00   -5.5072899033903422E+00
H    5.9779404196935175E+00    3.6317280425248061E-01   -3.8484116518476483E+00
H    5.8771658515494654E+00    1.5399403407593346E+00   -5.2018064978708685E+00
H    7.5980178193327221E+00    1.9205474998274332E+00   -2.6512189660471766E+00
H    8.2151068079293808E+00    1.3878408354818126E+00   -4.2379779655576204E+00
H    7.5416152130280549E+00    3.0363175808331291E+00   -4.0494403119691569E+00
H    1.1308748987986788E+00   -2.3280222911725365E-02   -2.3100407585148126E+00
H   -4.8658995861534521E-01   -3.7440422025351419E+00   -1.1850100486620171E+01
H   -4.6764449978191175E-01   -6.5704476684034523E+00   -1.0896937649934682E+01
H   -2.0976638678251525E+00   -7.2993462461429255E+00   -1.0669860315708565E+01
H   -5.2716474770026767E-01   -8.9600134537376821E+00   -1.1674622977855426E+01
H   -1.8085450526055340E+00   -8.5614425775093395E+00   -1.2849660893200900E+01
H   -1.6914968171363115E-01   -7.8589752177610199E+00   -1.3035693879178375E+01
H   -4.9780187313631989E+00   -3.8475594732054241E+00   -9.5086340233981002E+00
H   -6.0208564720078517E+00   -4.9380890123903480E+00   -1.2084328532304868E+01
H   -4.8107958359953971E+00   -5.7321351148852848E+00   -1.3155959320053439E+01
H   -6.7338867657739963E+00   -7.2983434652598094E+00   -1.1296609980991002E+01
H   -7.0732507185385662E+00   -6.9529644327631814E+00   -1.3015671366600554E+01
H   -5.6829459396804500E+00   -7.9843161930874675E+00   -1.2576083978796047E+01
H   -2.2798663257112208E+00   -2.0833469505463333E+00   -2.4420871078827280E+00
H   -5.8532551096908687E+00   -2.9409054887657913E+00   -5.9200051537399778E+00
H   -6.6270514201930570E+00   -3.7623359362669344E+00   -1.7128336954099841E+00
H   -7.5893735016761008E+00   -2.9680299061849968E+00   -3.0032167072639475E+00
H   -8.5534014645944403E+00   -5.1309408268603596E+00   -1.5324258332876046E+00
H   -9.0882829759066830E+00   -4.8180319894434218E+00   -3.2066022232410201E+00
H   -7.7825830145592620E+00   -5.9934377824898357E+00   -2.8824952260731869E+00
H   -4.0763842195386211E+00   -5.8221647002701395E+00   -3.0451796837765643E+00
H   -2.4019924452054631E+00   -5.1916398567455984E+00   -2.8356491757826907E+00
H   -2.9218424754167454E+00   -7.2666975722380265E+00   -1.4185559964677295E+00
H   -2.3681297843058253E+00   -5.8656451923587198E+00   -4.5278830761357286E-01
H   -4.1080588297514256E+00   -6.2961976639284041E+00   -5.0515532462958024E-01
H    3.4708902798894532E+00    2.1424066742132779E+00   -3.4481414966747981E-01
H    2.2029865338843031E+00    8.7771095242145880E-01   -2.0579093372992341E-01
H    3.9418155509069104E+00   -7.2579565800587464E-01    7.2990020983272341E-01
H    5.1886133497607752E+00    5.5136265935774309E-01    5.7443412945741990E-01
H    3.8328104492055011E+00    7.6710882477905695E-01    1.7121607387878368E+00
H   -8.2239626371631029E+00    1.1927023195865307E+00   -7.4374124362906953E+00
H   -9.5058760452619993E+00    1.7431671169627880E+00   -5.2918364435347796E+00
H   -8.2827249397680145E+00    2.4859810409611178E+00   -3.2723416386864188E+00
H   -5.2570484019790920E+00    2.5348576348833500E+00   -1.0582436089108536E+00
H   -4.1621463370578580E+00    1.1677550402833199E-01   -1.6598384691248385E+00
H   -4.1838524151652399E+00    7.7813819636062187E-01   -3.2885657561688664E+00
H   -2.7597584068278813E+00    2.0506540038323045E+00   -8.4095861782773396E-01
H   -1.9756273208558199E+00    1.2538807387485251E+00   -2.2319265196524554E+00
H   -2.8446723258438342E+00    2.7914002616986364E+00   -2.4697098948558054E+00
H   -7.0100705829256187E+00    4.4639995753776007E-01   -2.4687169149998347E+00
H   -6.2750883761749767E+00    1.6178145522060910E-01   -8.9695068963864089E-01
H   -7.6010998650472592E+00    1.7916291727516671E+00    2.3971560876268327E-01
H   -7.9028529068995468E+00    2.7455761698738876E+00   -1.2190606650766316E+00
H   -8.7664204288944330E+00    1.2061930347826713E+00   -9.6758564276064596E-01
H    4.3950243824806595E-01    8.1971093005715794E+00   -4.4191746943765500E+00
H   -8.2796806756303976E-01    7.1001416128795833E+00   -2.6157408848730590E+00
H   -2.2781125770987587E+00    5.0638317616222261E+00   -3.0679112067958094E+00
H    1.8042650011116614E+00    8.5799311901742730E+00   -6.1187154830315622E+00
H    2.4672583548064875E+00    6.5249417229061537E+00   -8.2980232165759844E+00
H    3.6804527459937146E+00    7.6205847871759458E+00   -7.6380276920189933E+00
H    2.9338048092513067E+00    4.9946430737917682E+00   -6.6174880661338031E+00
H    4.1005354030075258E+00    6.1211218648210375E+00   -5.8766328280188276E+00
H    2.4018113661697793E+00    6.1485883316190026E+00   -5.3871033365785079E+00
H    2.3898076438729841E+00    9.7214626896046763E+00   -8.2375714640257360E+00
H    1.4983772505365263E+00    8.5261024536200676E+00   -9.1780079927630762E+00
H    4.5592077779982768E-02    1.0316423917516987E+01   -7.1084659759857685E+00
H    2.5433325090535752E-01    1.0794363144355755E+01   -8.8135114357845250E+00
H   -6.7311797256776995E-01    9.3265857380925397E+00   -8.4051057152846855E+00
H    1.1090597325939724E+00    4.8370849902444304E+00   -1.4639081370256854E+01
H    1.3967706768947059E+00    6.7933086090124455E+00   -1.3126244017805551E+01
H    8.1854462613381007E-01    6.6173118371465760E+00   -1.0657489181356237E+01
H    1.2629148887418944E+00    1.1235102018368608E+00   -1.2645505413174851E+01
H    8.4059582974069280E-01    3.7874376586944730E-01   -1.5598261145885912E+01
H    1.6960189923613800E+00   -5.8178761932621159E-01   -1.4396597260978117E+01
H   -4.2191758926189543E-01   -7.5208070150048423E-01   -1.2996260454557991E+01
H   -1.3203141454610765E+00    8.9046960854833213E-02   -1.4285296018374835E+01
H   -5.7497037271311402E-01   -1.5032476326667250E+00   -1.4608504284236595E+01
H    3.2664202250140564E+00    1.0138786818092194E+00   -1.4511338985854415E+01
H    2.5797958228711280E+00    2.5645794744830681E+00   -1.4976633189399053E+01
H    3.8119064496213690E+00    1.7502419144929611E+00   -1.2255368210983114E+01
H    4.3713532558539372E+00    3.0571771123957618E+00   -1.3327042942436947E+01
H    2.8626351444195604E+00    3.2419003935544346E+00   -1.2401603324471832E+01
H   -7.7149295287325543E+00    1.5303474752432993E+00   -1.3786681040069068E+01
H   -5.6952041525872144E+00    1.5516741356112795E+00   -1.5187276297763530E+01
H   -3.3731473319169001E+00    1.4325113249688000E+00   -1.4130548059004246E+01
H   -9.0797287156607265E+00    7.2115233812782131E-01   -1.2454273132842793E+01
H   -9.2523180189590022E+00    1.7173037082925191E-01   -9.4460463476916416E+00
H   -1.0359384877741753E+01   -5.2477671399268633E-01   -1.0626483851575204E+01
H   -8.1146799927926079E+00   -1.8690178360481871E+00   -9.7038735057006171E+00
H   -8.7466775930779850E+00   -2.1673846623813620E+00   -1.1343403828505339E+01
H   -7.3757470510721594E+00   -1.0564821879491051E+00   -1.1087791060439814E+01
H   -1.0995623742864405E+01    1.8967775625431840E+00   -1.1387719594665636E+01
H   -9.9891193051194858E+00    2.3429124483159902E+00   -1.0009596338021389E+01
H   -9.2461256275880039E+00    4.2782280293269306E+00   -1.1082535363466192E+01
H   -8.7084365772615477E+00    3.3707427183547063E+00   -1.2496705512194616E+01
H   -1.0384235364031012E+01    3.9436488319090861E+00   -1.2404483850046052E+01
     &END COORD
     &KIND Dy
       BASIS_SET DZVP-MOLOPT-SR-GTH
       POTENTIAL GTH-PBE-q20
       &POTENTIAL
 4 6 0 10
  0.5102968700000000E+00 2  0.1767093508000000E+02 -0.8678777000000000E+00
 4
  0.4421234800000000E+00 2 -0.2715733840000000E+01  0.4017884260000000E+01
 -0.5187066270000000E+01
  0.4501723000000000E+00 2 -0.2773475350000000E+01  0.2201152450000000E+01
 -0.2604438700000000E+01
  0.4711651400000000E+00 1 -0.7522756100000000E+00
  0.2618074100000000E+00 1 -0.2424856414000000E+02
         # Potential name:  GTH-PBE-Q20  for symbol:  DY
         # Potential read from the potential filename: ../POTENTIAL
       &END POTENTIAL
     &END KIND
     &KIND Tb
       BASIS_SET DZVP-MOLOPT-SR-GTH
       POTENTIAL GTH-PBE-q19
     &END KIND
     &KIND Ho
       BASIS_SET DZVP-MOLOPT-SR-GTH
       POTENTIAL GTH-PBE-q21
     &END KIND
     &KIND Gd
       BASIS_SET DZVP-MOLOPT-SR-GTH
       POTENTIAL GTH-PBE-q18
     &END KIND
     &KIND Lu
       BASIS_SET DZVP-MOLOPT-SR-GTH
       POTENTIAL GTH-PBE-q25
     &END KIND
     &KIND Pm
       BASIS_SET DZVP-MOLOPT-SR-GTH
       POTENTIAL GTH-PBE-q15
     &END KIND
     &KIND Tm
       BASIS_SET DZVP-MOLOPT-SR-GTH
       POTENTIAL GTH-PBE-q23
     &END KIND
     &KIND F
       BASIS_SET DZVP-GTH-PADE
       POTENTIAL GTH-PBE-q7
     &END KIND
     &KIND S
       BASIS_SET DZVP-GTH-PADE
       POTENTIAL GTH-PBE-q6
     &END KIND
     &KIND Na
       BASIS_SET DZVP-GTH-PADE
       POTENTIAL GTH-PBE-q9
     &END KIND
     &KIND B
       BASIS_SET DZVP-GTH-PADE
       POTENTIAL GTH-PBE-q3
     &END KIND
     &KIND Cl
       BASIS_SET DZVP-GTH-PADE
       POTENTIAL GTH-PBE-q7
     &END KIND
     &KIND H
       BASIS_SET DZVP-GTH-PADE
       POTENTIAL GTH-PBE-q1
       &POTENTIAL
 1
  0.2000000000000000E+00 2 -0.4178900440000000E+01  0.7244633100000000E+00
 0
         # Potential name:  GTH-PBE-Q1  for symbol:  H
         # Potential read from the potential filename: ../POTENTIAL
       &END POTENTIAL
     &END KIND
     &KIND N
       BASIS_SET DZVP-GTH-PADE
       POTENTIAL GTH-PBE-q5
       &POTENTIAL
 2 3
  0.2837905100000000E+00 2 -0.1241522559000000E+02  0.1868095920000000E+01
 2
  0.2554050000000000E+00 1  0.1363026257000000E+02
  0.2454945300000000E+00 0
         # Potential name:  GTH-PBE-Q5  for symbol:  N
         # Potential read from the potential filename: ../POTENTIAL
       &END POTENTIAL
     &END KIND
     &KIND O
       BASIS_SET DZVP-GTH-PADE
       POTENTIAL GTH-PBE-q6
       &POTENTIAL
 2 4
  0.2445543000000000E+00 2 -0.1666721480000000E+02  0.2487311320000000E+01
 2
  0.2209559200000000E+00 1  0.1833745811000000E+02
  0.2113324700000000E+00 0
         # Potential name:  GTH-PBE-Q6  for symbol:  O
         # Potential read from the potential filename: ../POTENTIAL
       &END POTENTIAL
     &END KIND
     &KIND C
       BASIS_SET DZVP-GTH-PADE
       POTENTIAL GTH-PBE-q4
       &POTENTIAL
 2 2
  0.3384712400000000E+00 2 -0.8803673979999999E+01  0.1339210850000000E+01
 2
  0.3025757500000000E+00 1  0.9622486650000001E+01
  0.2915069400000000E+00 0
         # Potential name:  GTH-PBE-Q4  for symbol:  C
         # Potential read from the potential filename: ../POTENTIAL
       &END POTENTIAL
     &END KIND
     &TOPOLOGY
       COORD_FILE_NAME ../../Dy_L9_L2.xyz
       COORD_FILE_FORMAT  XYZ
       NUMBER_OF_ATOMS  233
       MULTIPLE_UNIT_CELL  1 1 1
     &END TOPOLOGY
   &END SUBSYS
 &END FORCE_EVAL
