 # Version information for this restart file 
 # current date 2023-04-10 15:32:16.709
 # current working dir /mnt/scratch2/users/40265864/MSc_ML_MM/ln_replacements/xyz/Dy_L9_L2/geometry_optimisation_2/run-6
 # Program compiled at                              Mon 24 Oct 18:14:20 BST 2022
 # Program compiled on                          login1.pri.kelvin2.alces.network
 # Program compiled for                                                    local
 # Source code revision number                                         svn:17462
 &GLOBAL
   PRINT_LEVEL  LOW
   PROJECT_NAME dy_complex
   RUN_TYPE  GEO_OPT
 &END GLOBAL
 &MOTION
   &GEO_OPT
     TYPE  MINIMIZATION
     OPTIMIZER  BFGS
     MAX_ITER  100
     MAX_DR     1.0000000000000001E-01
     MAX_FORCE     1.0000000000000001E-01
     RMS_DR     1.0000000000000000E-02
     RMS_FORCE     1.0000000000000000E-02
     STEP_START_VAL  15
     &BFGS
       TRUST_RADIUS     2.9999999999999999E-01
     &END BFGS
   &END GEO_OPT
 &END MOTION
 &FORCE_EVAL
   METHOD  QS
   &DFT
     BASIS_SET_FILE_NAME ../BASIS_MOLOPT_UCL
     BASIS_SET_FILE_NAME BASIS_SET
     POTENTIAL_FILE_NAME ../POTENTIAL
     UKS  T
     MULTIPLICITY  6
     CHARGE  3
     &SCF
       MAX_SCF  200
       EPS_SCF     5.0000000000000002E-05
       SCF_GUESS  RESTART
       &OT  T
         MINIMIZER  DIIS
         PRECONDITIONER  FULL_SINGLE_INVERSE
       &END OT
     &END SCF
     &MGRID
       NGRIDS  4
       CUTOFF     5.0000000000000000E+02
       REL_CUTOFF     3.0000000000000000E+01
     &END MGRID
     &XC
       DENSITY_CUTOFF     1.0000000000000000E-10
       GRADIENT_CUTOFF     1.0000000000000000E-10
       TAU_CUTOFF     1.0000000000000000E-10
       &XC_FUNCTIONAL  NO_SHORTCUT
         &PBE  T
         &END PBE
       &END XC_FUNCTIONAL
     &END XC
   &END DFT
   &SUBSYS
     &CELL
       A     2.5000000000000004E+01    0.0000000000000000E+00    0.0000000000000000E+00
       B     0.0000000000000000E+00    2.5000000000000004E+01    0.0000000000000000E+00
       C     0.0000000000000000E+00    0.0000000000000000E+00    2.5000000000000004E+01
       PERIODIC  XYZ
       MULTIPLE_UNIT_CELL  1 1 1
     &END CELL
     &COORD
C    8.4284369305382594E+00    1.0932739987655025E+00   -8.7552177666950701E+00
C    6.9717172182555842E+00    6.6091993864335230E-01   -8.6711855458354243E+00
O    6.3007158711338729E+00    1.0254559250744486E+00   -9.9415070982874418E+00
C    4.9776631624469658E+00    6.7298132043009418E-01   -9.9662229769035857E+00
C    4.0100060714535797E+00    1.4451754270426327E+00   -9.2774294328907736E+00
C    2.6585234767196417E+00    1.0672082204395223E+00   -9.3637180899549666E+00
C    2.2482513428904314E+00   -7.4262343869107655E-02   -1.0090131716136023E+01
C    3.1836105361129943E+00   -8.4222122320565773E-01   -1.0800225120521873E+01
C    4.5560308205710838E+00   -4.7040062021679252E-01   -1.0728642915926528E+01
O    5.5051921035549789E+00   -1.2613029936627276E+00   -1.1301160955042608E+01
C    5.7390732139155851E+00   -1.0162926512348287E+00   -1.2745260994823138E+01
C    6.7400822034219381E+00   -2.0419163276399042E+00   -1.3275617340282961E+01
C    8.0196087799856497E-01   -2.5586214795170170E-01   -9.8079915096297388E+00
N    9.4133334927365336E-02   -1.2468490626366739E+00   -1.0373975244137075E+01
C   -1.1567707844593367E+00   -1.5413872646929998E+00   -9.9839492665188398E+00
N   -1.9170494893336849E+00   -8.9312659894537494E-01   -9.0177609404680314E+00
Dy   -1.8151658057209141E+00    1.3955109902372540E+00   -7.9755294501213783E+00
N    3.7638250945533452E-01    6.7747409073081055E-01   -8.8907028079885251E+00
C    1.4872166266285682E+00    1.4512125360247303E+00   -8.5532053704008018E+00
N    1.6680171504846113E+00    2.2242307480548495E+00   -7.4737067998049653E+00
C    1.0397967171491442E+00    1.9226156053368173E+00   -6.3149856142277541E+00
C    1.8056527463965628E+00    1.9128442229781164E+00   -5.0674130498685175E+00
C    3.1390133513261311E+00    2.2864839447159606E+00   -4.8233697073798236E+00
C    3.7611397960575705E+00    1.8309948842225086E+00   -3.6391676423845212E+00
O    5.0516444593142040E+00    2.1682380745022747E+00   -3.3334584435460264E+00
C    6.0761158097635715E+00    1.4420456368080430E+00   -4.0905199707768114E+00
C    7.4504604726960419E+00    1.9874795111781494E+00   -3.7328823559811308E+00
C    3.0069492291039595E+00    1.0344219715265501E+00   -2.7043103172914869E+00
C    1.6511164694762051E+00    6.6872507370514456E-01   -2.9680907952988056E+00
C    1.0713483545603977E+00    1.1100215548450096E+00   -4.1675767173237146E+00
C   -1.9121368494485844E-01    7.4614342522955268E-01   -4.8708577829024939E+00
N   -1.1195960618757952E+00   -3.9942385585008754E-02   -4.3091702915247776E+00
C   -2.1523802258034332E+00   -5.4491547344602309E-01   -4.9992806986607778E+00
N   -2.4555407737598141E+00   -3.6792092244518260E-01   -6.3314628484803981E+00
C   -3.5379211758373796E+00   -1.2109359362038778E+00   -6.6082715536335730E+00
N   -3.8927187516234500E+00   -1.7002486474735512E+00   -7.8066175222915968E+00
C   -3.0506815062440382E+00   -1.6830751300401829E+00   -8.8557783293991204E+00
C   -3.1106718237791502E+00   -2.7718345379292035E+00   -9.8459497702480974E+00
C   -1.8651185471788061E+00   -2.7279571815102952E+00   -1.0513025841966497E+01
C   -1.4588419160762274E+00   -3.7677712189988766E+00   -1.1363681338346606E+01
C   -2.3389650454932327E+00   -4.8747957057180065E+00   -1.1541083534524281E+01
O   -1.9319621562896492E+00   -5.9400287542306760E+00   -1.2289454920794777E+01
C   -1.3622409072902184E+00   -7.0256726691950337E+00   -1.1439690439903838E+01
C   -9.4802876689756910E-01   -8.1791393547146782E+00   -1.2332864868175005E+01
C   -3.6428533481755272E+00   -4.8792681063950960E+00   -1.0937653878371439E+01
C   -4.0201510710473656E+00   -3.8299129903928102E+00   -1.0050275225117591E+01
O   -4.4436005240335703E+00   -5.9748193071134752E+00   -1.1126912274100624E+01
C   -5.4175178750482980E+00   -5.8554681281141434E+00   -1.2240546308831533E+01
C   -6.2676849998517605E+00   -7.1149039392430637E+00   -1.2275943273187261E+01
C   -4.0475596819023885E+00   -1.8237734700260768E+00   -5.3792700261184354E+00
C   -3.1015033385880182E+00   -1.5044352751617145E+00   -4.3780673529439120E+00
C   -3.0820685061056072E+00   -2.2065139048536291E+00   -3.1639511654247778E+00
C   -4.0464110190397271E+00   -3.2349111197569247E+00   -2.9554005169492470E+00
C   -5.1283454774600816E+00   -3.4141203195923451E+00   -3.8932072046220330E+00
C   -5.0785099176423145E+00   -2.7579640652558259E+00   -5.1485248128906980E+00
O   -6.1356673311258749E+00   -4.3144979162748509E+00   -3.6772469388052391E+00
C   -7.1290233954763025E+00   -3.9521794458157196E+00   -2.6308002329389382E+00
C   -8.1979925927490651E+00   -5.0478732790828129E+00   -2.5635243447946934E+00
O   -3.8863753087949529E+00   -4.0483875887358094E+00   -1.8768730389215691E+00
C   -3.4038318228380668E+00   -5.4001362364366337E+00   -2.2929447956707949E+00
C   -3.2012871250207859E+00   -6.2570694303404659E+00   -1.0592540999889992E+00
N   -1.7528017903801338E-01    1.2835619698589906E+00   -6.1399925310965644E+00
O    3.6935938520025697E+00    5.7315705823163854E-01   -1.6277783431564632E+00
C    3.2742284200090070E+00    1.0481412208085779E+00   -2.9273877651189278E-01
C    4.1197105296169321E+00    3.4894009984075525E-01    7.6123763739829531E-01
N   -4.1123828773599138E+00    2.1020233146640805E+00   -7.2175332654918298E+00
C   -5.3465704786140966E+00    1.6675573772018231E+00   -7.6358714553296032E+00
N   -5.7280963230484607E+00    1.3273003589427872E+00   -8.8740061511692403E+00
C   -4.8959885292720466E+00    1.3447417233629022E+00   -9.9288138867482001E+00
N   -3.5020094163412536E+00    1.4076083805416284E+00   -9.8999729812584558E+00
C   -3.1081052579067232E+00    1.4925076113488354E+00   -1.1218609061330037E+01
N   -1.8976006992043928E+00    1.7923080818850254E+00   -1.1719121027880444E+01
C   -1.0797851330569408E+00    2.6209270894637444E+00   -1.1064004066401273E+01
N   -1.2202504286993749E+00    3.0313795127199294E+00   -9.7399598022272453E+00
C   -5.2450570752111436E-01    4.2097208405944988E+00   -9.6117353356312929E+00
N   -3.8771551933998416E-01    4.9745704247586824E+00   -8.5327693910317297E+00
C   -1.0089652598094581E+00    4.7214737620689000E+00   -7.3706416471914258E+00
N   -1.8485794778395086E+00    3.6561883562683817E+00   -7.0745395837814149E+00
C   -2.3550064385117517E+00    3.8635868741747248E+00   -5.8123275574164515E+00
N   -3.3935102451625738E+00    3.2709331916965807E+00   -5.2074262993542613E+00
C   -4.2622437350164066E+00    2.5234835583582718E+00   -5.8894610759524122E+00
C   -5.6158248252703542E+00    2.2374950350086311E+00   -5.4010695687041101E+00
C   -6.3295855869900040E+00    1.7631558440169379E+00   -6.5379018059403489E+00
C   -7.7118421165660704E+00    1.5453862013785458E+00   -6.5434104659587886E+00
C   -8.4080774820319633E+00    1.7956104633533687E+00   -5.3245757996442542E+00
C   -7.7309446125807302E+00    2.2199140744932486E+00   -4.1761725290265925E+00
C   -6.3080463296222566E+00    2.4065704313616174E+00   -4.1637784576223780E+00
O   -5.7060012007408485E+00    2.8311171139585927E+00   -3.0230068267475017E+00
C   -5.4573536326566305E+00    1.8588625049456127E+00   -1.8898954399925101E+00
C   -4.1663897357427970E+00    1.0771643659874504E+00   -2.2159300847695609E+00
C   -2.8731336956865343E+00    1.8555129824877554E+00   -1.9159083456988730E+00
C   -6.6694815078283192E+00    9.7769495793118122E-01   -1.5464583227152082E+00
C   -7.8146187758670660E+00    1.7269457434145479E+00   -8.2351429013147082E-01
C   -1.6869519694235344E+00    5.0196249507638298E+00   -5.1880500797066462E+00
C   -8.8813955521999577E-01    5.5824681576551942E+00   -6.2074343568433967E+00
C   -1.3124588385882829E-01    6.7620425924381564E+00   -5.9982666674062912E+00
C   -1.1872655163086472E-01    7.2931905590443309E+00   -4.6589290080661474E+00
C   -8.7131372557119202E-01    6.6808454988887638E+00   -3.6453071605540903E+00
C   -1.7074617856759413E+00    5.5465012714238915E+00   -3.8930651762191011E+00
O    4.3995844275102736E-01    7.2839168327861019E+00   -7.0871387989140198E+00
C    1.6820382297816441E+00    8.0866959867588921E+00   -7.0878237282635830E+00
C    2.7981029988136612E+00    7.0709223926683711E+00   -7.3775130778707654E+00
C    3.0734076150809981E+00    6.0432007821686753E+00   -6.2492471044559386E+00
C    1.5024598589675742E+00    9.1131588170311062E+00   -8.2098327075927653E+00
C    2.1482640141928874E-01    9.9492829659516779E+00   -8.1090079269091522E+00
C    1.1675743014451176E-01    4.5676283920656999E+00   -1.0902696645851604E+01
C   -1.3344398571896143E-01    3.4790218755378870E+00   -1.1779320475140102E+01
C    3.2332880697182897E-01    3.5291812551861264E+00   -1.3119750635822081E+01
C    8.2913871589678423E-01    4.7771837312756809E+00   -1.3594283308536152E+01
C    1.0013695643276068E+00    5.8683636088364883E+00   -1.2724391542548657E+01
C    6.9082989970595710E-01    5.7686967244144141E+00   -1.1339502058830043E+01
O    2.8669262448096122E-01    2.4516018384612241E+00   -1.3954541585802643E+01
C    1.2993650482112327E+00    1.3742799266743140E+00   -1.3729566940825327E+01
C    8.7007288528265780E-01    1.4662577260991277E-01   -1.4528412592631845E+01
C   -4.4610159839456354E-01   -5.1330762853091816E-01   -1.4093629382212463E+01
C    2.7034833424521940E+00    1.8704089559035693E+00   -1.4140521294409258E+01
C    3.4866175164336752E+00    2.5299522725169314E+00   -1.2990396235158009E+01
C   -4.2472379670579938E+00    1.3455481053980010E+00   -1.2134740648467126E+01
C   -5.3885908604215897E+00    1.3026765831776252E+00   -1.1302012733119199E+01
C   -6.6863496451379509E+00    1.3673618264574119E+00   -1.1876520377567957E+01
C   -6.7735447952703822E+00    1.4040790538096395E+00   -1.3316796088428093E+01
C   -5.6158558855762726E+00    1.4135259519965495E+00   -1.4106077027687396E+01
C   -4.3101285236067763E+00    1.4065010139486540E+00   -1.3529838586065292E+01
O   -7.7249261901089570E+00    1.4546873018761619E+00   -1.1039734131512027E+01
C   -9.0949140585661183E+00    1.0139360124823094E+00   -1.1388560677025810E+01
C   -9.3400236404789645E+00   -1.9981955510587332E-01   -1.0473822160802202E+01
C   -8.3750817093237266E+00   -1.3901066661429498E+00   -1.0688463480681555E+01
C   -1.0012722607444315E+01    2.2026588808132974E+00   -1.1104092845059414E+01
C   -9.5927167447849175E+00    3.5131907048423638E+00   -1.1823667639582427E+01
H    8.9072943138262310E+00    8.9794621713738254E-01   -7.7746661107997950E+00
H    8.9831630185338174E+00    5.1937445005481464E-01   -9.5092055088624949E+00
H    8.5296799872204634E+00    2.1683220607593467E+00   -8.9783219224391129E+00
H    6.8964718524302464E+00   -4.3198642458642178E-01   -8.5439505573319003E+00
H    6.4514250765604313E+00    1.1654529284612309E+00   -7.8361150077860060E+00
H    4.3226732095950746E+00    2.3371747105819054E+00   -8.7333234193922795E+00
H    2.8905246384300702E+00   -1.7453214196850233E+00   -1.1343912208502967E+01
H    4.7685479427448243E+00   -1.0876572008238341E+00   -1.3265508583234423E+01
H    6.1328055777018005E+00    9.0233815842289400E-03   -1.2861524843604192E+01
H    7.4599960928163291E+00   -2.3145955486293608E+00   -1.2485795841247638E+01
H    6.2584726234789496E+00   -2.9623185478427341E+00   -1.3642560626181291E+01
H    7.3213872382919796E+00   -1.6207151990929551E+00   -1.4120975683979447E+01
H    3.6784579754425146E+00    2.9406250319877989E+00   -5.5034474854364195E+00
H    5.9960565212310364E+00    3.7324099890823254E-01   -3.8242176321534571E+00
H    5.8898700629357101E+00    1.5414415709413136E+00   -5.1772912727467437E+00
H    7.6423059655710253E+00    1.9038358043024715E+00   -2.6538246392032274E+00
H    8.2118623465767193E+00    1.3909176362769560E+00   -4.2643644959192128E+00
H    7.5644888476228127E+00    3.0415604802667677E+00   -4.0309389182224651E+00
H    1.1068727696684644E+00    1.1144228075603450E-02   -2.2826537736245522E+00
H   -4.7578580091803102E-01   -3.7826510933975581E+00   -1.1837539297317438E+01
H   -4.9950848198464631E-01   -6.5945244676130121E+00   -1.0899248269420054E+01
H   -2.1271935405255222E+00   -7.3264373316394886E+00   -1.0703179825287751E+01
H   -4.9857900280483325E-01   -8.9673273657353185E+00   -1.1703345246101124E+01
H   -1.8148885299744903E+00   -8.6031146719106140E+00   -1.2856654663040612E+01
H   -1.9536256326037491E-01   -7.8589625296946428E+00   -1.3069370309562670E+01
H   -4.9708806806415211E+00   -3.8649410797384620E+00   -9.5156090014753367E+00
H   -6.0308842490847052E+00   -4.9549082821040606E+00   -1.2062499601264546E+01
H   -4.8416945300172269E+00   -5.7250632448665026E+00   -1.3173309960528753E+01
H   -6.7741328989936438E+00   -7.2826619872717968E+00   -1.1312227701948052E+01
H   -7.0438916020803077E+00   -6.9995570826843831E+00   -1.3049818480294416E+01
H   -5.6649590853785021E+00   -8.0024583106433997E+00   -1.2528395100252665E+01
H   -2.2897356391555115E+00   -2.0943325589871793E+00   -2.4257300395031298E+00
H   -5.8270751878342351E+00   -2.9919752425475439E+00   -5.9071336530223473E+00
H   -6.5908672938606356E+00   -3.8308989130522058E+00   -1.6764888959411093E+00
H   -7.5532387235864791E+00   -2.9808280462306809E+00   -2.9394619771283055E+00
H   -8.6008745879826911E+00   -5.1082706867729852E+00   -1.5326641357330217E+00
H   -9.0459116063898932E+00   -4.8474431039006323E+00   -3.2413475401162612E+00
H   -7.7679383116024576E+00   -6.0264494006656610E+00   -2.8219089909580122E+00
H   -4.1449503559536574E+00   -5.8315492043909423E+00   -2.9865173441749193E+00
H   -2.4477600482776101E+00   -5.2595063961059605E+00   -2.8404518563166299E+00
H   -2.8770562094857866E+00   -7.2631389016547718E+00   -1.3843437284933156E+00
H   -2.4174403777132314E+00   -5.8448907717055185E+00   -4.0595088197900658E-01
H   -4.1333213947444065E+00   -6.3630877525362983E+00   -4.8744643472926086E-01
H    3.4540075133502794E+00    2.1332278943178258E+00   -2.7798054220284707E-01
H    2.1998676769526093E+00    8.4672800155951999E-01   -1.5389300166794001E-01
H    3.9371404533694152E+00   -7.3421136814215859E-01    7.8355177738595538E-01
H    5.1949787167320469E+00    5.2253667830965622E-01    5.9301389799543913E-01
H    3.8677566269660009E+00    7.5733401449112259E-01    1.7534737837419028E+00
H   -8.2177758802727912E+00    1.2126387962839762E+00   -7.4480061274497613E+00
H   -9.4983355075430893E+00    1.7129265310769528E+00   -5.2904840001301618E+00
H   -8.2879981780986771E+00    2.4366612239513894E+00   -3.2628565126647757E+00
H   -5.2630404054590381E+00    2.5514665358747255E+00   -1.0594140304521080E+00
H   -4.1760553993605738E+00    1.3250163465631823E-01   -1.6403044758840801E+00
H   -4.1823653504843428E+00    7.5670554039176519E-01   -3.2756766077234105E+00
H   -2.7979736169228704E+00    2.0944596166487282E+00   -8.4133637101193970E-01
H   -1.9796225890143417E+00    1.2759828687404087E+00   -2.2016367961492773E+00
H   -2.8696998769054454E+00    2.7957200211641022E+00   -2.4889860966328019E+00
H   -7.0198514505788951E+00    4.2421114009608352E-01   -2.4375972713951963E+00
H   -6.2746111689040323E+00    2.0287845665616369E-01   -8.6200911389794266E-01
H   -7.5949439648368902E+00    1.8209379685283551E+00    2.5075377978749314E-01
H   -7.9617297754580783E+00    2.7474932961913252E+00   -1.2168495514038407E+00
H   -8.7724458486055763E+00    1.1841830760695269E+00   -9.1431323783813945E-01
H    4.5120210407377348E-01    8.1955235104925706E+00   -4.4199810302041662E+00
H   -8.3113494373983454E-01    7.0968899130400507E+00   -2.6341122989554195E+00
H   -2.3363008374214935E+00    5.1050473035114585E+00   -3.1135883787056082E+00
H    1.7755245166793803E+00    8.5756986856744124E+00   -6.1033030940364474E+00
H    2.4945947694060484E+00    6.5513129591471859E+00   -8.3023109641375701E+00
H    3.6971710152187267E+00    7.6630125108356371E+00   -7.6020326919063477E+00
H    2.9353391604218353E+00    5.0127042996042643E+00   -6.6152704971093454E+00
H    4.1051818653735923E+00    6.1268585255952370E+00   -5.8745049225959152E+00
H    2.4088975145914433E+00    6.1581371458799410E+00   -5.3764582791924012E+00
H    2.3994583894698369E+00    9.7545944710314636E+00   -8.1835985861004215E+00
H    1.5203023551095936E+00    8.5727665926864134E+00   -9.1740547391493799E+00
H    7.9168529407983246E-02    1.0388871062404824E+01   -7.1018068472199243E+00
H    2.3558594484280723E-01    1.0780924219119987E+01   -8.8314903744715494E+00
H   -6.6907230894955394E-01    9.3362820676974341E+00   -8.3374018721824612E+00
H    1.1080688153357301E+00    4.8466127452326502E+00   -1.4648942191951075E+01
H    1.4031601185703528E+00    6.8015137009914204E+00   -1.3131511915950774E+01
H    8.1118210517687950E-01    6.6138930658425910E+00   -1.0659212059807356E+01
H    1.2816825667480389E+00    1.1328970844860793E+00   -1.2646259579740375E+01
H    8.4535838085757520E-01    4.2150174922293920E-01   -1.5596105136440629E+01
H    1.6946497349687624E+00   -5.7924825577322703E-01   -1.4413462899988120E+01
H   -4.1857050212444008E-01   -7.6559739475265054E-01   -1.3018006970441363E+01
H   -1.3131222667726534E+00    1.4024521119086172E-01   -1.4270193002175354E+01
H   -6.0445836101747519E-01   -1.4514627244309222E+00   -1.4651130945759501E+01
H    3.2721695129881549E+00    9.9695903328166469E-01   -1.4503271132045152E+01
H    2.5768294851347040E+00    2.5395957175319999E+00   -1.5001666922042309E+01
H    3.7948031248212852E+00    1.7604127473371902E+00   -1.2263564544360010E+01
H    4.4010499785520967E+00    3.0309874873747065E+00   -1.3346774883421393E+01
H    2.8942165883509228E+00    3.2790245539233864E+00   -1.2439401542287509E+01
H   -7.7496116977766931E+00    1.4701083277081122E+00   -1.3809072184993925E+01
H   -5.7243702543910189E+00    1.4689995551680726E+00   -1.5197886126253051E+01
H   -3.3994793490166941E+00    1.4493765195846966E+00   -1.4130302070267904E+01
H   -9.0853289163165929E+00    7.2087979678608416E-01   -1.2449419284102270E+01
H   -9.2614757148775677E+00    1.7071866737201921E-01   -9.4374755457913366E+00
H   -1.0386188313805842E+01   -5.0760448521719226E-01   -1.0626920798964074E+01
H   -8.1817798644807418E+00   -1.9155572767728735E+00   -9.7353175094656379E+00
H   -8.7732171453586165E+00   -2.1318033324546390E+00   -1.1401643502900527E+01
H   -7.3944379291400288E+00   -1.0541520315534285E+00   -1.1065634755032971E+01
H   -1.1020417588760617E+01    1.8820626216072136E+00   -1.1405224737878035E+01
H   -1.0019630356378890E+01    2.3483994573894647E+00   -1.0011313577701282E+01
H   -9.2637685648952406E+00    4.2730782188979921E+00   -1.1098847915898320E+01
H   -8.7553715645914743E+00    3.3696450366075936E+00   -1.2526893678390959E+01
H   -1.0425089333081827E+01    3.9468598410644660E+00   -1.2397012570456678E+01
     &END COORD
     &KIND Dy
       BASIS_SET DZVP-MOLOPT-SR-GTH
       POTENTIAL GTH-PBE-q20
       &POTENTIAL
 4 6 0 10
  0.5102968700000000E+00 2  0.1767093508000000E+02 -0.8678777000000000E+00
 4
  0.4421234800000000E+00 2 -0.2715733840000000E+01  0.4017884260000000E+01
 -0.5187066270000000E+01
  0.4501723000000000E+00 2 -0.2773475350000000E+01  0.2201152450000000E+01
 -0.2604438700000000E+01
  0.4711651400000000E+00 1 -0.7522756100000000E+00
  0.2618074100000000E+00 1 -0.2424856414000000E+02
         # Potential name:  GTH-PBE-Q20  for symbol:  DY
         # Potential read from the potential filename: ../POTENTIAL
       &END POTENTIAL
     &END KIND
     &KIND Tb
       BASIS_SET DZVP-MOLOPT-SR-GTH
       POTENTIAL GTH-PBE-q19
     &END KIND
     &KIND Ho
       BASIS_SET DZVP-MOLOPT-SR-GTH
       POTENTIAL GTH-PBE-q21
     &END KIND
     &KIND Gd
       BASIS_SET DZVP-MOLOPT-SR-GTH
       POTENTIAL GTH-PBE-q18
     &END KIND
     &KIND Lu
       BASIS_SET DZVP-MOLOPT-SR-GTH
       POTENTIAL GTH-PBE-q25
     &END KIND
     &KIND Pm
       BASIS_SET DZVP-MOLOPT-SR-GTH
       POTENTIAL GTH-PBE-q15
     &END KIND
     &KIND Tm
       BASIS_SET DZVP-MOLOPT-SR-GTH
       POTENTIAL GTH-PBE-q23
     &END KIND
     &KIND F
       BASIS_SET DZVP-GTH-PADE
       POTENTIAL GTH-PBE-q7
     &END KIND
     &KIND S
       BASIS_SET DZVP-GTH-PADE
       POTENTIAL GTH-PBE-q6
     &END KIND
     &KIND Na
       BASIS_SET DZVP-GTH-PADE
       POTENTIAL GTH-PBE-q9
     &END KIND
     &KIND B
       BASIS_SET DZVP-GTH-PADE
       POTENTIAL GTH-PBE-q3
     &END KIND
     &KIND Cl
       BASIS_SET DZVP-GTH-PADE
       POTENTIAL GTH-PBE-q7
     &END KIND
     &KIND H
       BASIS_SET DZVP-GTH-PADE
       POTENTIAL GTH-PBE-q1
       &POTENTIAL
 1
  0.2000000000000000E+00 2 -0.4178900440000000E+01  0.7244633100000000E+00
 0
         # Potential name:  GTH-PBE-Q1  for symbol:  H
         # Potential read from the potential filename: ../POTENTIAL
       &END POTENTIAL
     &END KIND
     &KIND N
       BASIS_SET DZVP-GTH-PADE
       POTENTIAL GTH-PBE-q5
       &POTENTIAL
 2 3
  0.2837905100000000E+00 2 -0.1241522559000000E+02  0.1868095920000000E+01
 2
  0.2554050000000000E+00 1  0.1363026257000000E+02
  0.2454945300000000E+00 0
         # Potential name:  GTH-PBE-Q5  for symbol:  N
         # Potential read from the potential filename: ../POTENTIAL
       &END POTENTIAL
     &END KIND
     &KIND O
       BASIS_SET DZVP-GTH-PADE
       POTENTIAL GTH-PBE-q6
       &POTENTIAL
 2 4
  0.2445543000000000E+00 2 -0.1666721480000000E+02  0.2487311320000000E+01
 2
  0.2209559200000000E+00 1  0.1833745811000000E+02
  0.2113324700000000E+00 0
         # Potential name:  GTH-PBE-Q6  for symbol:  O
         # Potential read from the potential filename: ../POTENTIAL
       &END POTENTIAL
     &END KIND
     &KIND C
       BASIS_SET DZVP-GTH-PADE
       POTENTIAL GTH-PBE-q4
       &POTENTIAL
 2 2
  0.3384712400000000E+00 2 -0.8803673979999999E+01  0.1339210850000000E+01
 2
  0.3025757500000000E+00 1  0.9622486650000001E+01
  0.2915069400000000E+00 0
         # Potential name:  GTH-PBE-Q4  for symbol:  C
         # Potential read from the potential filename: ../POTENTIAL
       &END POTENTIAL
     &END KIND
     &TOPOLOGY
       COORD_FILE_NAME ../../Dy_L9_L2.xyz
       COORD_FILE_FORMAT  XYZ
       NUMBER_OF_ATOMS  233
       MULTIPLE_UNIT_CELL  1 1 1
     &END TOPOLOGY
   &END SUBSYS
 &END FORCE_EVAL
