 # Version information for this restart file 
 # current date 2023-04-10 15:32:59.665
 # current working dir /mnt/scratch2/users/40265864/MSc_ML_MM/ln_replacements/xyz/Dy_L9_L2/geometry_optimisation_2/run-6
 # Program compiled at                              Mon 24 Oct 18:14:20 BST 2022
 # Program compiled on                          login1.pri.kelvin2.alces.network
 # Program compiled for                                                    local
 # Source code revision number                                         svn:17462
 &GLOBAL
   PRINT_LEVEL  LOW
   PROJECT_NAME dy_complex
   RUN_TYPE  GEO_OPT
 &END GLOBAL
 &MOTION
   &GEO_OPT
     TYPE  MINIMIZATION
     OPTIMIZER  BFGS
     MAX_ITER  100
     MAX_DR     1.0000000000000001E-01
     MAX_FORCE     1.0000000000000001E-01
     RMS_DR     1.0000000000000000E-02
     RMS_FORCE     1.0000000000000000E-02
     STEP_START_VAL  16
     &BFGS
       TRUST_RADIUS     2.9999999999999999E-01
     &END BFGS
   &END GEO_OPT
 &END MOTION
 &FORCE_EVAL
   METHOD  QS
   &DFT
     BASIS_SET_FILE_NAME ../BASIS_MOLOPT_UCL
     BASIS_SET_FILE_NAME BASIS_SET
     POTENTIAL_FILE_NAME ../POTENTIAL
     UKS  T
     MULTIPLICITY  6
     CHARGE  3
     &SCF
       MAX_SCF  200
       EPS_SCF     5.0000000000000002E-05
       SCF_GUESS  RESTART
       &OT  T
         MINIMIZER  DIIS
         PRECONDITIONER  FULL_SINGLE_INVERSE
       &END OT
     &END SCF
     &MGRID
       NGRIDS  4
       CUTOFF     5.0000000000000000E+02
       REL_CUTOFF     3.0000000000000000E+01
     &END MGRID
     &XC
       DENSITY_CUTOFF     1.0000000000000000E-10
       GRADIENT_CUTOFF     1.0000000000000000E-10
       TAU_CUTOFF     1.0000000000000000E-10
       &XC_FUNCTIONAL  NO_SHORTCUT
         &PBE  T
         &END PBE
       &END XC_FUNCTIONAL
     &END XC
   &END DFT
   &SUBSYS
     &CELL
       A     2.5000000000000004E+01    0.0000000000000000E+00    0.0000000000000000E+00
       B     0.0000000000000000E+00    2.5000000000000004E+01    0.0000000000000000E+00
       C     0.0000000000000000E+00    0.0000000000000000E+00    2.5000000000000004E+01
       PERIODIC  XYZ
       MULTIPLE_UNIT_CELL  1 1 1
     &END CELL
     &COORD
C    8.4297276974899820E+00    1.0935438131894382E+00   -8.7544265064809608E+00
C    6.9748857117403249E+00    6.5766757871219472E-01   -8.6739503921831140E+00
O    6.2953207300705358E+00    1.0235698550308241E+00   -9.9344258667997831E+00
C    4.9707288274703147E+00    6.7386874627613313E-01   -9.9701266766509349E+00
C    4.0078318137384006E+00    1.4513690645731330E+00   -9.2800232952807953E+00
C    2.6587896195795850E+00    1.0684473456901307E+00   -9.3634633103997196E+00
C    2.2463371881823653E+00   -6.5099815854486320E-02   -1.0102422468116195E+01
C    3.1818037126251331E+00   -8.4094850957253953E-01   -1.0803080230342589E+01
C    4.5556140821956062E+00   -4.7329078997503121E-01   -1.0729126323932693E+01
O    5.5071254307931614E+00   -1.2592556244477160E+00   -1.1307052920055872E+01
C    5.7367706164374344E+00   -1.0147013098230073E+00   -1.2750032163896220E+01
C    6.7383041431402759E+00   -2.0437034620056074E+00   -1.3271008866625273E+01
C    8.0395692130103913E-01   -2.5371487548952432E-01   -9.8085593145162910E+00
N    9.5338751555794604E-02   -1.2452560880489643E+00   -1.0372306150880743E+01
C   -1.1581549369701167E+00   -1.5411059209882467E+00   -9.9890321893146314E+00
N   -1.9154503621522723E+00   -9.1013667368421058E-01   -9.0127189900517415E+00
Dy   -1.8136046414482374E+00    1.3906793985408257E+00   -8.0238799850862144E+00
N    3.8308460444318432E-01    6.7674294308422434E-01   -8.8823684677784271E+00
C    1.4916805912747444E+00    1.4519136928464673E+00   -8.5495148413655428E+00
N    1.6714979187211472E+00    2.2227177615618814E+00   -7.4655003083650149E+00
C    1.0387854294094885E+00    1.9116187419714925E+00   -6.3122608225581081E+00
C    1.8059392934072200E+00    1.9197573586194054E+00   -5.0639361541625538E+00
C    3.1415362135651721E+00    2.2904063816344742E+00   -4.8255586376805661E+00
C    3.7566133318152164E+00    1.8294853544442882E+00   -3.6397326835814661E+00
O    5.0493191036941214E+00    2.1650833151829083E+00   -3.3406712498084317E+00
C    6.0757549562055733E+00    1.4367925985467269E+00   -4.0930121218048043E+00
C    7.4463622318170151E+00    1.9880850878461054E+00   -3.7317726966598030E+00
C    3.0083357879965664E+00    1.0361281283364747E+00   -2.6989220365548494E+00
C    1.6496470104676078E+00    6.7937246671367868E-01   -2.9624435022689313E+00
C    1.0709447139875607E+00    1.1133947955468715E+00   -4.1648582535851801E+00
C   -1.8821819603083562E-01    7.5079829522333763E-01   -4.8725899033631199E+00
N   -1.1131360258977094E+00   -4.0471082256343195E-02   -4.3143944476813267E+00
C   -2.1515699692423960E+00   -5.4436656616486712E-01   -5.0018117025696789E+00
N   -2.4577047127155609E+00   -3.6040723372257927E-01   -6.3321563487530979E+00
C   -3.5301564864323223E+00   -1.2148487367524905E+00   -6.6093103071783652E+00
N   -3.9078180738475643E+00   -1.6866385791324989E+00   -7.8091930828378144E+00
C   -3.0558543180575213E+00   -1.6885401553233843E+00   -8.8522723905740754E+00
C   -3.1145023475814981E+00   -2.7711761975917888E+00   -9.8491972758151682E+00
C   -1.8688351028723844E+00   -2.7250970235357777E+00   -1.0518176063896826E+01
C   -1.4573306479190347E+00   -3.7671601930817529E+00   -1.1362096806700036E+01
C   -2.3420997936504797E+00   -4.8682279003792850E+00   -1.1544699403551858E+01
O   -1.9372052373295137E+00   -5.9404103851895016E+00   -1.2285893464487771E+01
C   -1.3607531864325009E+00   -7.0212205927644256E+00   -1.1438185289797923E+01
C   -9.4883730658714172E-01   -8.1748907365675976E+00   -1.2332008609626140E+01
C   -3.6404110346417129E+00   -4.8795494537007258E+00   -1.0933558344172612E+01
C   -4.0231060757976778E+00   -3.8292238058369716E+00   -1.0052072245736614E+01
O   -4.4517853075357152E+00   -5.9674992955401329E+00   -1.1111830828410149E+01
C   -5.4084783596427872E+00   -5.8541284774580573E+00   -1.2235861656512879E+01
C   -6.2630294495227501E+00   -7.1099493856406335E+00   -1.2274413446670525E+01
C   -4.0502459313770576E+00   -1.8198660214647790E+00   -5.3793618824461609E+00
C   -3.1025811230452542E+00   -1.4994885118728609E+00   -4.3780517258716092E+00
C   -3.0783367558797319E+00   -2.2105395478082892E+00   -3.1688902717145679E+00
C   -4.0535303130596017E+00   -3.2255791554796067E+00   -2.9561091865082911E+00
C   -5.1315344678069863E+00   -3.4117915219181074E+00   -3.8956758696629930E+00
C   -5.0815113030037207E+00   -2.7522415991855884E+00   -5.1497844218962019E+00
O   -6.1351115480973455E+00   -4.3174025353023868E+00   -3.6841481730045991E+00
C   -7.1223509133175522E+00   -3.9464432502381612E+00   -2.6362913687336302E+00
C   -8.1907355595033788E+00   -5.0403646402905400E+00   -2.5664999739588721E+00
O   -3.8908737252210481E+00   -4.0504124082924902E+00   -1.8827731314267968E+00
C   -3.4015815886633107E+00   -5.3992749719778024E+00   -2.2953112682691592E+00
C   -3.2004205562936061E+00   -6.2547668064610598E+00   -1.0598967614929449E+00
N   -1.8252187532151523E-01    1.2804164416882087E+00   -6.1501652071671913E+00
O    3.6845298967084856E+00    5.5630131188760557E-01   -1.6243017949098173E+00
C    3.2743985400725495E+00    1.0492777221166556E+00   -2.9743288729634709E-01
C    4.1186870031155589E+00    3.4954205844854913E-01    7.5563460618901324E-01
N   -4.1064306708517542E+00    2.0852669341551930E+00   -7.2050754771986556E+00
C   -5.3431455294909895E+00    1.6695563370696913E+00   -7.6332057170448113E+00
N   -5.7251047455687347E+00    1.3306588634695917E+00   -8.8717193289200988E+00
C   -4.8971411108083176E+00    1.3341389580774983E+00   -9.9270864022294472E+00
N   -3.5018768753988958E+00    1.4044048175925166E+00   -9.9067716120136193E+00
C   -3.0986572338786660E+00    1.4778804634210394E+00   -1.1218917349251877E+01
N   -1.8877839380724453E+00    1.7848169616749954E+00   -1.1720969131719936E+01
C   -1.0775221887317874E+00    2.6198594586748456E+00   -1.1067831783080106E+01
N   -1.2195207674687469E+00    3.0304786332435909E+00   -9.7438955201621251E+00
C   -5.2129390188081748E-01    4.2060178339538794E+00   -9.6109709422075742E+00
N   -3.9292825031587891E-01    4.9746830353440927E+00   -8.5298140128598767E+00
C   -1.0116540522845292E+00    4.7150807909259189E+00   -7.3672873570798201E+00
N   -1.8540334607223101E+00    3.6458878953856000E+00   -7.0751911732753960E+00
C   -2.3556472258820560E+00    3.8623004399064840E+00   -5.8114730469910025E+00
N   -3.3835777056019860E+00    3.2546508519193136E+00   -5.1966000206287619E+00
C   -4.2634040740539421E+00    2.5211830867521141E+00   -5.8865677044214966E+00
C   -5.6180836696384082E+00    2.2266581464224795E+00   -5.3936136909568653E+00
C   -6.3279295034624745E+00    1.7545588664391720E+00   -6.5340400123900855E+00
C   -7.7101349018050334E+00    1.5373110528337879E+00   -6.5402947687523154E+00
C   -8.4105307330412611E+00    1.8020006724850495E+00   -5.3318053474728231E+00
C   -7.7299274848110606E+00    2.2179980468431890E+00   -4.1808281190411947E+00
C   -6.3080954748951203E+00    2.4089296954064658E+00   -4.1592304512668452E+00
O   -5.6981005090949521E+00    2.8358717281070485E+00   -3.0233887752419566E+00
C   -5.4530877039171974E+00    1.8578741918017807E+00   -1.8945694999646379E+00
C   -4.1651381461915102E+00    1.0728490973684268E+00   -2.2151313530107548E+00
C   -2.8758872569606728E+00    1.8568208283278353E+00   -1.9176994108778962E+00
C   -6.6635965389668774E+00    9.7911216099078391E-01   -1.5441077590978083E+00
C   -7.8115620769792331E+00    1.7265152893997147E+00   -8.2681076803929354E-01
C   -1.6827446735620806E+00    5.0165741165948008E+00   -5.1839286555422985E+00
C   -8.8744977204408193E-01    5.5801624897951765E+00   -6.2057936954249211E+00
C   -1.3165037407337449E-01    6.7599756715327048E+00   -5.9949923919365862E+00
C   -1.1864375603644590E-01    7.2922129626160554E+00   -4.6569608016952992E+00
C   -8.7527146543838596E-01    6.6826981886007504E+00   -3.6442281336498756E+00
C   -1.7054863775124958E+00    5.5460784799278846E+00   -3.8900640789164096E+00
O    4.2895926080946700E-01    7.2929202867296317E+00   -7.0821689261326792E+00
C    1.6771278236136917E+00    8.0808239889492324E+00   -7.0912237873337309E+00
C    2.8008377390689803E+00    7.0730084454192559E+00   -7.3742795057025177E+00
C    3.0750571769845245E+00    6.0415701980822361E+00   -6.2497304756942009E+00
C    1.5016413867620222E+00    9.1122309324555495E+00   -8.2097634534883248E+00
C    2.1514863389640868E-01    9.9497098807433950E+00   -8.1104142257779124E+00
C    1.1575815679421234E-01    4.5673311938511745E+00   -1.0901256323385583E+01
C   -1.1852361560933965E-01    3.4740421461606319E+00   -1.1776772149322348E+01
C    3.2734521165418679E-01    3.5217030864001995E+00   -1.3121611337152784E+01
C    8.3019197257957744E-01    4.7727047061427355E+00   -1.3592077727865249E+01
C    1.0035975866345954E+00    5.8670099688986443E+00   -1.2726353815197438E+01
C    6.8970023098098854E-01    5.7662761368339854E+00   -1.1343186117771081E+01
O    2.8346536629412938E-01    2.4492183206307265E+00   -1.3961730561790135E+01
C    1.2955196513519571E+00    1.3709213872129045E+00   -1.3724074838782057E+01
C    8.6773141605082438E-01    1.4624162150710454E-01   -1.4528588498247577E+01
C   -4.4625194490431885E-01   -5.1535989530273496E-01   -1.4092195949587557E+01
C    2.6976338758791720E+00    1.8716287503424693E+00   -1.4133673201905420E+01
C    3.4873267541002853E+00    2.5300951360234127E+00   -1.2988692384470072E+01
C   -4.2420883741564248E+00    1.3447569006906548E+00   -1.2132514575562782E+01
C   -5.3856117641594592E+00    1.3068693216921439E+00   -1.1302512002371627E+01
C   -6.6826713265554938E+00    1.3610354823083952E+00   -1.1877576794504005E+01
C   -6.7683265709249731E+00    1.4037525054000646E+00   -1.3316074985955289E+01
C   -5.6116268883875495E+00    1.4174874076655222E+00   -1.4106468264261249E+01
C   -4.3102948027905414E+00    1.4007850416645884E+00   -1.3526748492302344E+01
O   -7.7142290285028210E+00    1.4593662276067660E+00   -1.1033851131036084E+01
C   -9.0801561799106789E+00    1.0123667399317275E+00   -1.1384152117403939E+01
C   -9.3405046254423851E+00   -2.0047210328769341E-01   -1.0475957080357100E+01
C   -8.3745171218875996E+00   -1.3891988308572973E+00   -1.0687646571742382E+01
C   -1.0005500007056959E+01    2.1977464286997357E+00   -1.1108862939032917E+01
C   -9.5936460651675990E+00    3.5131500807966218E+00   -1.1822108083030059E+01
H    8.9036211044565459E+00    9.0848090601839915E-01   -7.7747013876500066E+00
H    8.9790840182599254E+00    5.1621849813029330E-01   -9.5120681681792956E+00
H    8.5196736274958820E+00    2.1641196765655728E+00   -8.9856255953962236E+00
H    6.8876585362423555E+00   -4.3536545756545936E-01   -8.5441238015109988E+00
H    6.4471121962355307E+00    1.1599437822048781E+00   -7.8410285647181279E+00
H    4.3212603499518041E+00    2.3356549106300375E+00   -8.7231220583838880E+00
H    2.8937695475711749E+00   -1.7498868287144047E+00   -1.1337227071314052E+01
H    4.7614888082757680E+00   -1.0842266220532575E+00   -1.3261901676620869E+01
H    6.1233103143513965E+00    1.3603295474142945E-02   -1.2848360292926866E+01
H    7.4549833331482578E+00   -2.3144302075855308E+00   -1.2479351735523773E+01
H    6.2516018535760161E+00   -2.9591692565343464E+00   -1.3637788600165008E+01
H    7.3158775648788801E+00   -1.6130930208577763E+00   -1.4108616695324473E+01
H    3.6847020641838517E+00    2.9345164937687875E+00   -5.5144799582688835E+00
H    5.9928908152600240E+00    3.6816293229113556E-01   -3.8275440623917336E+00
H    5.8793684663838359E+00    1.5431452467938240E+00   -5.1778061181448560E+00
H    7.6333193466482427E+00    1.9047364674375789E+00   -2.6521762538509663E+00
H    8.2117421792622771E+00    1.3941775336273776E+00   -4.2591341497038862E+00
H    7.5583109622282114E+00    3.0412268372879834E+00   -4.0327629483574663E+00
H    1.1132435645329803E+00    5.5261362984786871E-03   -2.2870471082642645E+00
H   -4.7488804096673570E-01   -3.7837179997471724E+00   -1.1835813645516582E+01
H   -4.9814987717762399E-01   -6.5890254024236796E+00   -1.0899492258906031E+01
H   -2.1274601635032369E+00   -7.3208053888460372E+00   -1.0703187402174224E+01
H   -5.0380828448672510E-01   -8.9661306879857001E+00   -1.1704308302812176E+01
H   -1.8153303498729616E+00   -8.5983804400862560E+00   -1.2858719840169508E+01
H   -1.9436418729374688E-01   -7.8586028943012511E+00   -1.3067110501771959E+01
H   -4.9737743606681493E+00   -3.8734482268191393E+00   -9.5179850314754244E+00
H   -6.0229391081753372E+00   -4.9537088020687952E+00   -1.2061368458381809E+01
H   -4.8378202895697449E+00   -5.7201954274408173E+00   -1.3173475609593639E+01
H   -6.7642782725451047E+00   -7.2802346695733906E+00   -1.1309731773282952E+01
H   -7.0429511346215277E+00   -6.9956094288520720E+00   -1.3044027426226876E+01
H   -5.6652370508248735E+00   -7.9976646554352264E+00   -1.2530291367987170E+01
H   -2.2867808743920461E+00   -2.0906469451731740E+00   -2.4301710141758344E+00
H   -5.8321009600984244E+00   -2.9920667036116431E+00   -5.9043824164732213E+00
H   -6.5865541579104807E+00   -3.8281340423981711E+00   -1.6804650655643696E+00
H   -7.5528025429743995E+00   -2.9759243142005993E+00   -2.9386134699361368E+00
H   -8.5916273918296096E+00   -5.1093483948689986E+00   -1.5391127940757390E+00
H   -9.0390485290881326E+00   -4.8455166880127871E+00   -3.2426071964823326E+00
H   -7.7637033994457640E+00   -6.0211540574843241E+00   -2.8231017329826806E+00
H   -4.1428289249081152E+00   -5.8281655896608493E+00   -2.9895550563807132E+00
H   -2.4482253096931057E+00   -5.2497918430412929E+00   -2.8393602125928643E+00
H   -2.8853203812011334E+00   -7.2607439765106907E+00   -1.3844858446953712E+00
H   -2.4142150752665086E+00   -5.8460308904114910E+00   -4.0906932807890029E-01
H   -4.1327559295651399E+00   -6.3555538397220248E+00   -4.8810299381960764E-01
H    3.4479321436318018E+00    2.1377866979789424E+00   -2.8608549213417878E-01
H    2.1982935398315964E+00    8.5071179944910769E-01   -1.6110592722199751E-01
H    3.9356771647324611E+00   -7.3418256067093912E-01    7.7399464013490982E-01
H    5.1924516300599644E+00    5.2674690638273181E-01    5.8696821267347676E-01
H    3.8631745891053697E+00    7.5495950117634847E-01    1.7477121682072594E+00
H   -8.2201247457668991E+00    1.2127566018382407E+00   -7.4476538111826827E+00
H   -9.4997474530813069E+00    1.7093693183682790E+00   -5.2960266508259091E+00
H   -8.2878423225857940E+00    2.4392311902697257E+00   -3.2694944058686448E+00
H   -5.2616273313581141E+00    2.5509178939429442E+00   -1.0622033577289627E+00
H   -4.1775222881763998E+00    1.3199434089603376E-01   -1.6352346055388980E+00
H   -4.1883920119346723E+00    7.5850905174034911E-01   -3.2754044695285458E+00
H   -2.7967446739406565E+00    2.0900315428725231E+00   -8.4327956824233663E-01
H   -1.9830464835931991E+00    1.2750142441124035E+00   -2.2034318988263011E+00
H   -2.8658750278341945E+00    2.7988949496617428E+00   -2.4876017389991563E+00
H   -7.0135549239406823E+00    4.3434874822925257E-01   -2.4387727045182244E+00
H   -6.2773715524729656E+00    1.9602784650318320E-01   -8.6748520850767175E-01
H   -7.5933534557249125E+00    1.8204481232793017E+00    2.4811036466826597E-01
H   -7.9571661351028657E+00    2.7478904743228463E+00   -1.2161439540864913E+00
H   -8.7690385845524403E+00    1.1862303076983001E+00   -9.1917079928533696E-01
H    4.5158259339469231E-01    8.1950192234945050E+00   -4.4223528303594968E+00
H   -8.3490375768496916E-01    7.1017103627606186E+00   -2.6349873362133738E+00
H   -2.3289405543192352E+00    5.1085237501622700E+00   -3.1060604597133055E+00
H    1.7793036659943038E+00    8.5735494926728038E+00   -6.1092405689657499E+00
H    2.5012483261942551E+00    6.5530952176716077E+00   -8.3012232393836438E+00
H    3.7034548349394103E+00    7.6595738807303890E+00   -7.6058243734309681E+00
H    2.9350770740151124E+00    5.0110266139064983E+00   -6.6158215958549382E+00
H    4.1058755679891963E+00    6.1282680625357138E+00   -5.8739498161148784E+00
H    2.4092489488474507E+00    6.1609569187660247E+00   -5.3786647437999591E+00
H    2.3980374621076712E+00    9.7551255536256019E+00   -8.1868932219093509E+00
H    1.5221606719564977E+00    8.5733430009210121E+00   -9.1753907991973165E+00
H    7.8229796804543728E-02    1.0382104052707245E+01   -7.1034496859598830E+00
H    2.3979852421182210E-01    1.0782969741573734E+01   -8.8287917630884412E+00
H   -6.7107638072094122E-01    9.3392180767761079E+00   -8.3393472679615979E+00
H    1.1100020451936239E+00    4.8489125300499136E+00   -1.4645559989375183E+01
H    1.4049989730043855E+00    6.8024028709425535E+00   -1.3125425051642765E+01
H    8.0535007401371661E-01    6.6101022832155270E+00   -1.0661407884364515E+01
H    1.2727004717965424E+00    1.1356448034584536E+00   -1.2641112970382537E+01
H    8.4303807514855955E-01    4.1944000071218418E-01   -1.5598061776444839E+01
H    1.6918226025263756E+00   -5.8169559902892243E-01   -1.4417115655942878E+01
H   -4.2216690630408932E-01   -7.6308443858237340E-01   -1.3016530915409719E+01
H   -1.3125783671951012E+00    1.3810089286434646E-01   -1.4271073723776453E+01
H   -6.0400459146826979E-01   -1.4542905560752606E+00   -1.4647379447042063E+01
H    3.2716454843565561E+00    1.0062549913939844E+00   -1.4506315781184822E+01
H    2.5757460773759728E+00    2.5432110041796361E+00   -1.4997464708849586E+01
H    3.7983228068667065E+00    1.7639154073337919E+00   -1.2260007249743888E+01
H    4.3981133497229878E+00    3.0328188133143454E+00   -1.3349269492514084E+01
H    2.8953907935513987E+00    3.2802319804730593E+00   -1.2438429249393863E+01
H   -7.7433295746019057E+00    1.4730338610808307E+00   -1.3806595228371755E+01
H   -5.7197658951426789E+00    1.4736618163407349E+00   -1.5195681343400409E+01
H   -3.4033174512629594E+00    1.4529972256155801E+00   -1.4131923061368713E+01
H   -9.0905503986381841E+00    7.2188508352147107E-01   -1.2447550181640649E+01
H   -9.2625594124085389E+00    1.6809741358294836E-01   -9.4383201492435074E+00
H   -1.0387852953561218E+01   -5.1284092961265548E-01   -1.0625219287565690E+01
H   -8.1811076066572426E+00   -1.9139589179013510E+00   -9.7359137179949204E+00
H   -8.7735752997526895E+00   -2.1302620161139121E+00   -1.1398781039182513E+01
H   -7.3923743670307402E+00   -1.0584685496904620E+00   -1.1064602520486197E+01
H   -1.1022184196106499E+01    1.8873378064096795E+00   -1.1401144692767449E+01
H   -1.0024840757529310E+01    2.3499816851847721E+00   -1.0016302376855029E+01
H   -9.2622364491231632E+00    4.2739690001747501E+00   -1.1099198742761548E+01
H   -8.7563847730620470E+00    3.3683450837806777E+00   -1.2524912857166116E+01
H   -1.0424470071757673E+01    3.9468977593651542E+00   -1.2397286673314710E+01
     &END COORD
     &KIND Dy
       BASIS_SET DZVP-MOLOPT-SR-GTH
       POTENTIAL GTH-PBE-q20
       &POTENTIAL
 4 6 0 10
  0.5102968700000000E+00 2  0.1767093508000000E+02 -0.8678777000000000E+00
 4
  0.4421234800000000E+00 2 -0.2715733840000000E+01  0.4017884260000000E+01
 -0.5187066270000000E+01
  0.4501723000000000E+00 2 -0.2773475350000000E+01  0.2201152450000000E+01
 -0.2604438700000000E+01
  0.4711651400000000E+00 1 -0.7522756100000000E+00
  0.2618074100000000E+00 1 -0.2424856414000000E+02
         # Potential name:  GTH-PBE-Q20  for symbol:  DY
         # Potential read from the potential filename: ../POTENTIAL
       &END POTENTIAL
     &END KIND
     &KIND Tb
       BASIS_SET DZVP-MOLOPT-SR-GTH
       POTENTIAL GTH-PBE-q19
     &END KIND
     &KIND Ho
       BASIS_SET DZVP-MOLOPT-SR-GTH
       POTENTIAL GTH-PBE-q21
     &END KIND
     &KIND Gd
       BASIS_SET DZVP-MOLOPT-SR-GTH
       POTENTIAL GTH-PBE-q18
     &END KIND
     &KIND Lu
       BASIS_SET DZVP-MOLOPT-SR-GTH
       POTENTIAL GTH-PBE-q25
     &END KIND
     &KIND Pm
       BASIS_SET DZVP-MOLOPT-SR-GTH
       POTENTIAL GTH-PBE-q15
     &END KIND
     &KIND Tm
       BASIS_SET DZVP-MOLOPT-SR-GTH
       POTENTIAL GTH-PBE-q23
     &END KIND
     &KIND F
       BASIS_SET DZVP-GTH-PADE
       POTENTIAL GTH-PBE-q7
     &END KIND
     &KIND S
       BASIS_SET DZVP-GTH-PADE
       POTENTIAL GTH-PBE-q6
     &END KIND
     &KIND Na
       BASIS_SET DZVP-GTH-PADE
       POTENTIAL GTH-PBE-q9
     &END KIND
     &KIND B
       BASIS_SET DZVP-GTH-PADE
       POTENTIAL GTH-PBE-q3
     &END KIND
     &KIND Cl
       BASIS_SET DZVP-GTH-PADE
       POTENTIAL GTH-PBE-q7
     &END KIND
     &KIND H
       BASIS_SET DZVP-GTH-PADE
       POTENTIAL GTH-PBE-q1
       &POTENTIAL
 1
  0.2000000000000000E+00 2 -0.4178900440000000E+01  0.7244633100000000E+00
 0
         # Potential name:  GTH-PBE-Q1  for symbol:  H
         # Potential read from the potential filename: ../POTENTIAL
       &END POTENTIAL
     &END KIND
     &KIND N
       BASIS_SET DZVP-GTH-PADE
       POTENTIAL GTH-PBE-q5
       &POTENTIAL
 2 3
  0.2837905100000000E+00 2 -0.1241522559000000E+02  0.1868095920000000E+01
 2
  0.2554050000000000E+00 1  0.1363026257000000E+02
  0.2454945300000000E+00 0
         # Potential name:  GTH-PBE-Q5  for symbol:  N
         # Potential read from the potential filename: ../POTENTIAL
       &END POTENTIAL
     &END KIND
     &KIND O
       BASIS_SET DZVP-GTH-PADE
       POTENTIAL GTH-PBE-q6
       &POTENTIAL
 2 4
  0.2445543000000000E+00 2 -0.1666721480000000E+02  0.2487311320000000E+01
 2
  0.2209559200000000E+00 1  0.1833745811000000E+02
  0.2113324700000000E+00 0
         # Potential name:  GTH-PBE-Q6  for symbol:  O
         # Potential read from the potential filename: ../POTENTIAL
       &END POTENTIAL
     &END KIND
     &KIND C
       BASIS_SET DZVP-GTH-PADE
       POTENTIAL GTH-PBE-q4
       &POTENTIAL
 2 2
  0.3384712400000000E+00 2 -0.8803673979999999E+01  0.1339210850000000E+01
 2
  0.3025757500000000E+00 1  0.9622486650000001E+01
  0.2915069400000000E+00 0
         # Potential name:  GTH-PBE-Q4  for symbol:  C
         # Potential read from the potential filename: ../POTENTIAL
       &END POTENTIAL
     &END KIND
     &TOPOLOGY
       COORD_FILE_NAME ../../Dy_L9_L2.xyz
       COORD_FILE_FORMAT  XYZ
       NUMBER_OF_ATOMS  233
       MULTIPLE_UNIT_CELL  1 1 1
     &END TOPOLOGY
   &END SUBSYS
 &END FORCE_EVAL
