 # Version information for this restart file 
 # current date 2023-03-24 23:18:51.245
 # current working dir /mnt/scratch2/users/40265864/MSc_ML_MM/ln_replacements/xyz/Dy_L18_L20_L20_MeO_O/geometry_optimisation/run-0
 # Program compiled at                              Mon 24 Oct 18:14:20 BST 2022
 # Program compiled on                          login1.pri.kelvin2.alces.network
 # Program compiled for                                                    local
 # Source code revision number                                         svn:17462
 &GLOBAL
   PRINT_LEVEL  LOW
   PROJECT_NAME molecule_name
   RUN_TYPE  GEO_OPT
 &END GLOBAL
 &MOTION
   &GEO_OPT
     OPTIMIZER  BFGS
     MAX_DR     5.0000000000000000E-01
     MAX_FORCE     5.0000000000000000E-01
     RMS_DR     5.0000000000000003E-02
     RMS_FORCE     5.0000000000000003E-02
     STEP_START_VAL  200
   &END GEO_OPT
 &END MOTION
 &FORCE_EVAL
   METHOD  QS
   &DFT
     BASIS_SET_FILE_NAME ../BASIS_MOLOPT_UCL
     BASIS_SET_FILE_NAME BASIS_SET
     POTENTIAL_FILE_NAME ../POTENTIAL
     UKS  T
     MULTIPLICITY  0
     CHARGE  3
     &SCF
       MAX_SCF  50
       EPS_SCF     5.0000000000000002E-05
       SCF_GUESS  RESTART
       &OT  T
         MINIMIZER  DIIS
         PRECONDITIONER  FULL_KINETIC
       &END OT
       &OUTER_SCF  T
         EPS_SCF     5.0000000000000002E-05
         MAX_SCF  20
       &END OUTER_SCF
     &END SCF
     &MGRID
       NGRIDS  2
       CUTOFF     4.0000000000000000E+02
       REL_CUTOFF     5.0000000000000000E+01
     &END MGRID
     &XC
       DENSITY_CUTOFF     1.0000000000000000E-10
       GRADIENT_CUTOFF     1.0000000000000000E-10
       TAU_CUTOFF     1.0000000000000000E-10
       &XC_FUNCTIONAL  NO_SHORTCUT
         &PBE  T
         &END PBE
       &END XC_FUNCTIONAL
     &END XC
   &END DFT
   &SUBSYS
     &CELL
       A     1.1000000000000000E+01    0.0000000000000000E+00    0.0000000000000000E+00
       B     0.0000000000000000E+00    9.0000000000000000E+00    0.0000000000000000E+00
       C     0.0000000000000000E+00    0.0000000000000000E+00    1.1000000000000000E+01
       PERIODIC  NONE
       MULTIPLE_UNIT_CELL  1 1 1
     &END CELL
     &COORD
C   -8.2873208957092062E-02   -4.7646692362196559E+00   -7.0859891968858602E-01
O   -8.3310478392388398E-01   -3.8958811103436930E+00   -7.5223339325376359E-01
Dy   -2.0885115796686021E-01   -3.4190066885258861E+00    7.0523354191964982E-01
O    9.8785214322060888E-02    2.8619974933985017E+00   -1.6716251412913106E-03
O    1.3428723467026562E+00   -3.1653873468849860E+00    1.1126072553112614E+00
C   -1.6182217466952227E+00   -4.2656906386630560E+00    1.8372048375669794E-01
C   -2.4385834321011672E+00   -3.7790919247695176E+00    7.9510895632755729E-01
C   -1.6750955416775171E+00   -3.2662102252568244E+00    1.5143449859659344E+00
C   -3.0106767719829666E+00    4.9310249771422363E+00    1.2110427038378068E+01
O   -2.2332416219358961E+00    4.4656420400157808E+00    1.0915522394575321E+01
C   -9.9523773687822781E-01    5.3611103870181758E+00    1.1798546716653489E+01
O   -7.3237688524706668E-01    3.8575476004327558E+00   -6.0742588172407386E-01
C   -8.9744881101299773E-02    4.3810334891575238E+00    5.4468703595648782E-01
C   -1.8293959330445815E+00    3.8991989883740255E+00    1.1046187452682878E-01
C   -2.3340520811785028E+00    4.5211242001666667E+00    1.3744098394610218E+00
C   -1.6543668755892027E+00    5.7830974208604191E+00    2.8921827883750867E-01
O   -1.1972746399071208E+00    4.6068308477195474E+00    8.5821129607570890E-01
C   -7.0678113996726721E-01    5.2026433818976274E+00    4.1430183032031158E-02
F   -2.8944862029041669E+00    5.6789953853389026E+00    1.1123128530253641E+00
F    5.0435489958950919E-01    5.9077544534793534E+00    1.2063264043278878E+00
F   -9.2164333048176883E-01    5.9847092975073810E+00    1.2670573990718335E+00
O   -3.0760379769427271E-01   -4.6426822736085196E+00    2.0366618289633966E+00
C    2.2375876311538287E-01   -3.4584910069457147E+00    2.1618535764851936E+00
C   -7.1895735906845670E-02   -3.8696671496047763E+00    3.4728586588505288E+00
C    2.7870511322016750E-01   -2.1546542796916093E+00    1.5496923861135923E+00
C    2.1911672012982705E-01    2.3763429452650016E+00    1.6322945326593363E+00
O   -7.9171955165821761E-01    2.7452814373556018E+00    9.9099810569020097E-01
C    4.7446322234729874E-02    3.7701009076171910E+00    1.7311483188905838E+00
F    1.2329977524849223E+00    4.1149667192986987E+00    2.6886642303379129E+00
F   -2.9195995561048860E-01    5.0014692013410018E+00    2.7444937082731595E+00
F    2.0249025342963027E+00    5.7365138254157539E+00    1.1076156056256348E+00
H   -2.0519846362756144E-01   -6.0424970563319045E+00    1.2899437239722038E+00
H    5.9081764272558082E-02   -5.5803392821394224E+00    1.8871517290899406E-01
H   -6.8655538625801793E-01   -2.8520735718563657E+00   -6.3174879489160496E-01
H   -9.2461881614885577E-01    5.1713764992885336E+00    1.8664403692799243E+00
H    9.7549442678772880E-01    3.3573669025428314E+00    3.7865414498029981E-01
H   -3.1942563620444488E+00   -4.1383105553520485E+00    2.1346089637311647E+00
H   -3.0977853657716228E+00   -3.2395334458957583E+00    1.6207671917822458E-01
H    9.5561709674680773E-01   -4.4159991521765054E+00    2.5915662232462298E+00
H   -4.0242171020391257E+00   -3.6126606164881618E+00    1.1460155587664831E+00
H   -6.1825351486235003E-01    4.4432569921108067E+00    1.0735336462176900E+01
H   -1.7654514192392817E-01    3.1998137607580444E+00    1.1705708791911601E+01
H   -3.3338059943589871E+00    3.9709312254988842E+00    1.2154240799873323E+01
H   -2.1063963122063019E+00    4.5234604940436958E+00   -1.0824334945598408E+00
H   -3.4887760583365610E+00    4.6261707901379534E+00    2.7274143198122419E-01
H   -2.3435061789867224E+00    5.2536283838867046E+00   -2.5892709992863439E-01
H   -1.0665286942330781E+00    6.9071195653462034E+00    1.0118075023644704E+00
H    3.1135094764714993E-01   -3.6818668108902979E+00    4.5836560252280139E+00
H   -8.8126239647882232E-01   -4.9640402407905233E+00    2.9090414249196850E+00
H    1.8587283267866388E+00   -3.8945083223592256E+00    2.5354827350602700E+00
H    2.4336226732144830E+00   -2.4230905234853131E+00    5.3212072287755130E-01
     &END COORD
     &KIND Dy
       BASIS_SET SZV-MOLOPT-SR-GTH
       POTENTIAL GTH-PBE-q20
       &POTENTIAL
 4 6 0 10
  0.5102968700000000E+00 2  0.1767093508000000E+02 -0.8678777000000000E+00
 4
  0.4421234800000000E+00 2 -0.2715733840000000E+01  0.4017884260000000E+01
 -0.5187066270000000E+01
  0.4501723000000000E+00 2 -0.2773475350000000E+01  0.2201152450000000E+01
 -0.2604438700000000E+01
  0.4711651400000000E+00 1 -0.7522756100000000E+00
  0.2618074100000000E+00 1 -0.2424856414000000E+02
         # Potential name:  GTH-PBE-Q20  for symbol:  DY
         # Potential read from the potential filename: ../POTENTIAL
       &END POTENTIAL
     &END KIND
     &KIND Tb
       BASIS_SET SZV-MOLOPT-SR-GTH
       POTENTIAL GTH-PBE-q19
     &END KIND
     &KIND Ho
       BASIS_SET SZV-MOLOPT-SR-GTH
       POTENTIAL GTH-PBE-q21
     &END KIND
     &KIND Gd
       BASIS_SET SZV-MOLOPT-SR-GTH
       POTENTIAL GTH-PBE-q18
     &END KIND
     &KIND Lu
       BASIS_SET SZV-MOLOPT-SR-GTH
       POTENTIAL GTH-PBE-q25
     &END KIND
     &KIND Pm
       BASIS_SET SZV-MOLOPT-SR-GTH
       POTENTIAL GTH-PBE-q15
     &END KIND
     &KIND Tm
       BASIS_SET SZV-MOLOPT-SR-GTH
       POTENTIAL GTH-PBE-q23
     &END KIND
     &KIND F
       BASIS_SET SZV-GTH-PADE
       POTENTIAL GTH-PBE-q7
       &POTENTIAL
 2 5
  0.2149295900000000E+00 2 -0.2157302836000000E+02  0.3199776150000000E+01
 2
  0.1946840200000000E+00 1  0.2374354045000000E+02
  0.1861560800000000E+00 0
         # Potential name:  GTH-PBE-Q7  for symbol:  F
         # Potential read from the potential filename: ../POTENTIAL
       &END POTENTIAL
     &END KIND
     &KIND S
       BASIS_SET SZV-GTH-PADE
       POTENTIAL GTH-PBE-q6
     &END KIND
     &KIND Na
       BASIS_SET SZV-GTH-PADE
       POTENTIAL GTH-PBE-q9
     &END KIND
     &KIND B
       BASIS_SET SZV-GTH-PADE
       POTENTIAL GTH-PBE-q3
     &END KIND
     &KIND Cl
       BASIS_SET SZV-GTH-PADE
       POTENTIAL GTH-PBE-q7
     &END KIND
     &KIND H
       BASIS_SET SZV-GTH-PADE
       POTENTIAL GTH-PBE-q1
       &POTENTIAL
 1
  0.2000000000000000E+00 2 -0.4178900440000000E+01  0.7244633100000000E+00
 0
         # Potential name:  GTH-PBE-Q1  for symbol:  H
         # Potential read from the potential filename: ../POTENTIAL
       &END POTENTIAL
     &END KIND
     &KIND N
       BASIS_SET SZV-GTH-PADE
       POTENTIAL GTH-PBE-q5
     &END KIND
     &KIND O
       BASIS_SET SZV-GTH-PADE
       POTENTIAL GTH-PBE-q6
       &POTENTIAL
 2 4
  0.2445543000000000E+00 2 -0.1666721480000000E+02  0.2487311320000000E+01
 2
  0.2209559200000000E+00 1  0.1833745811000000E+02
  0.2113324700000000E+00 0
         # Potential name:  GTH-PBE-Q6  for symbol:  O
         # Potential read from the potential filename: ../POTENTIAL
       &END POTENTIAL
     &END KIND
     &KIND C
       BASIS_SET SZV-GTH-PADE
       POTENTIAL GTH-PBE-q4
       &POTENTIAL
 2 2
  0.3384712400000000E+00 2 -0.8803673979999999E+01  0.1339210850000000E+01
 2
  0.3025757500000000E+00 1  0.9622486650000001E+01
  0.2915069400000000E+00 0
         # Potential name:  GTH-PBE-Q4  for symbol:  C
         # Potential read from the potential filename: ../POTENTIAL
       &END POTENTIAL
     &END KIND
     &TOPOLOGY
       COORD_FILE_NAME ../../Dy_L18_L20_L20_MeO_O.xyz
       COORD_FILE_FORMAT  XYZ
       NUMBER_OF_ATOMS  51
       MULTIPLE_UNIT_CELL  1 1 1
     &END TOPOLOGY
   &END SUBSYS
 &END FORCE_EVAL
