 # Version information for this restart file 
 # current date 2023-03-24 23:18:23.623
 # current working dir /mnt/scratch2/users/40265864/MSc_ML_MM/ln_replacements/xyz/Dy_L18_L20_L20_MeO_O/geometry_optimisation/run-0
 # Program compiled at                              Mon 24 Oct 18:14:20 BST 2022
 # Program compiled on                          login1.pri.kelvin2.alces.network
 # Program compiled for                                                    local
 # Source code revision number                                         svn:17462
 &GLOBAL
   PRINT_LEVEL  LOW
   PROJECT_NAME molecule_name
   RUN_TYPE  GEO_OPT
 &END GLOBAL
 &MOTION
   &GEO_OPT
     OPTIMIZER  BFGS
     MAX_DR     5.0000000000000000E-01
     MAX_FORCE     5.0000000000000000E-01
     RMS_DR     5.0000000000000003E-02
     RMS_FORCE     5.0000000000000003E-02
     STEP_START_VAL  198
   &END GEO_OPT
 &END MOTION
 &FORCE_EVAL
   METHOD  QS
   &DFT
     BASIS_SET_FILE_NAME ../BASIS_MOLOPT_UCL
     BASIS_SET_FILE_NAME BASIS_SET
     POTENTIAL_FILE_NAME ../POTENTIAL
     UKS  T
     MULTIPLICITY  0
     CHARGE  3
     &SCF
       MAX_SCF  50
       EPS_SCF     5.0000000000000002E-05
       SCF_GUESS  RESTART
       &OT  T
         MINIMIZER  DIIS
         PRECONDITIONER  FULL_KINETIC
       &END OT
       &OUTER_SCF  T
         EPS_SCF     5.0000000000000002E-05
         MAX_SCF  20
       &END OUTER_SCF
     &END SCF
     &MGRID
       NGRIDS  2
       CUTOFF     4.0000000000000000E+02
       REL_CUTOFF     5.0000000000000000E+01
     &END MGRID
     &XC
       DENSITY_CUTOFF     1.0000000000000000E-10
       GRADIENT_CUTOFF     1.0000000000000000E-10
       TAU_CUTOFF     1.0000000000000000E-10
       &XC_FUNCTIONAL  NO_SHORTCUT
         &PBE  T
         &END PBE
       &END XC_FUNCTIONAL
     &END XC
   &END DFT
   &SUBSYS
     &CELL
       A     1.1000000000000000E+01    0.0000000000000000E+00    0.0000000000000000E+00
       B     0.0000000000000000E+00    9.0000000000000000E+00    0.0000000000000000E+00
       C     0.0000000000000000E+00    0.0000000000000000E+00    1.1000000000000000E+01
       PERIODIC  NONE
       MULTIPLE_UNIT_CELL  1 1 1
     &END CELL
     &COORD
C   -1.5861353458997726E-01   -4.7527609040806382E+00   -7.2682329197262474E-01
O   -8.3411188062291586E-01   -3.8238795822848397E+00   -7.8285069930077789E-01
Dy   -2.3789046356569671E-01   -3.4161873860490513E+00    6.9521304423180030E-01
O    8.4213197825050934E-02    2.7966259121957360E+00   -1.4140510257248150E-02
O    1.3227835687805676E+00   -3.1716090129316714E+00    1.1162471670094871E+00
C   -1.6508786651277958E+00   -4.3045048435459234E+00    1.7200185432756815E-01
C   -2.4851121722402838E+00   -3.7795028558864505E+00    7.6192608421733943E-01
C   -1.7460843832027286E+00   -3.2919746531851795E+00    1.4649870832539631E+00
C   -3.0494076565377068E+00    4.9179742917116851E+00    1.2110930064631400E+01
O   -2.2450797104097191E+00    4.4117319750283635E+00    1.0890019576281500E+01
C   -1.0092547049218732E+00    5.3321782368803854E+00    1.1777033286727461E+01
O   -7.2786057887307909E-01    3.7928569039653133E+00   -6.0495713949988161E-01
C   -1.1172556326952093E-01    4.3246402501003054E+00    5.7070857017638710E-01
C   -1.8303197822450370E+00    3.8840233781976110E+00    1.1810884665240333E-01
C   -2.3675486169948425E+00    4.4853668758838863E+00    1.3403506493802457E+00
C   -1.6507907302508262E+00    5.7504266415622132E+00    2.6602649922316846E-01
O   -1.2088549695217188E+00    4.5898570192368942E+00    8.7430066277902030E-01
C   -7.1154316841853760E-01    5.2405055059122603E+00    6.7824885218365589E-03
F   -2.9436692090913001E+00    5.6771025290224850E+00    1.0914821998836786E+00
F    4.9186152792441401E-01    5.9035053354264404E+00    1.2107558548072601E+00
F   -9.7577619338816857E-01    5.9778127083646266E+00    1.2327616654927840E+00
O   -2.6115459149756959E-01   -4.6301910674913680E+00    2.0777639936037136E+00
C    2.8309819265337005E-01   -3.4877189975248126E+00    2.1510641263300778E+00
C    1.9987071121851208E-02   -3.8710977460704310E+00    3.5063612103079755E+00
C    2.8991865156509367E-01   -2.1823922832969695E+00    1.3542690260525851E+00
C    2.5253019554393730E-01    2.4413965803416828E+00    1.6517828314307363E+00
O   -7.6649008672737740E-01    2.7165692222994804E+00    9.9822403739538001E-01
C    1.1392355197714474E-01    3.7860290461945230E+00    1.7365192725273060E+00
F    1.2717503825569698E+00    4.0946627331683052E+00    2.7049381426729506E+00
F   -1.6957119948981650E-01    4.9792887707384841E+00    2.7979055228365071E+00
F    1.9856050071539635E+00    5.7204024368126261E+00    1.1148580758517668E+00
H   -2.2768435248447541E-01   -6.0284086380670692E+00    1.3188842912703691E+00
H    5.9998578907720347E-02   -5.6496924371628401E+00    1.9797205859191006E-01
H   -5.8702225163764765E-01   -2.8375691107868923E+00   -6.3860873976509713E-01
H   -9.7586589807718493E-01    5.1246460685997324E+00    1.9005354357295559E+00
H    9.0152190546415933E-01    3.4058596481372914E+00    4.1652199666715034E-01
H   -3.3742463825853073E+00   -4.1112814321126061E+00    2.0291975683047498E+00
H   -3.1566723469562414E+00   -3.2331719854823349E+00    1.2024706842888983E-01
H    9.8354619821717804E-01   -4.4306167043810039E+00    2.6325067804645759E+00
H   -3.9622215742538578E+00   -3.4654059575039717E+00    1.2893338631719315E+00
H   -6.1196960901374930E-01    4.3973368353659934E+00    1.0743734920267288E+01
H   -1.9713909944124386E-01    3.1924866444300197E+00    1.1720089576570532E+01
H   -3.3247744698994595E+00    3.9607361484570363E+00    1.2088707797605146E+01
H   -2.1282717997347373E+00    4.4733716119975808E+00   -1.1264244623382393E+00
H   -3.5114535329121561E+00    4.6698359192525984E+00    2.5249949605467098E-01
H   -2.3813584227067452E+00    5.2572907881348776E+00   -2.5072725074778979E-01
H   -1.0727379714588703E+00    6.9543932667482400E+00    1.0296235555374746E+00
H    3.6067904660557776E-01   -3.6787690462469489E+00    4.6223055418128673E+00
H   -8.4586958026125392E-01   -4.8296660855461040E+00    2.8191479470562975E+00
H    1.9042809864404473E+00   -3.9513427478241874E+00    2.6307401229961864E+00
H    2.2429495095714187E+00   -2.1964692859841066E+00    7.1526312832348804E-01
     &END COORD
     &KIND Dy
       BASIS_SET SZV-MOLOPT-SR-GTH
       POTENTIAL GTH-PBE-q20
       &POTENTIAL
 4 6 0 10
  0.5102968700000000E+00 2  0.1767093508000000E+02 -0.8678777000000000E+00
 4
  0.4421234800000000E+00 2 -0.2715733840000000E+01  0.4017884260000000E+01
 -0.5187066270000000E+01
  0.4501723000000000E+00 2 -0.2773475350000000E+01  0.2201152450000000E+01
 -0.2604438700000000E+01
  0.4711651400000000E+00 1 -0.7522756100000000E+00
  0.2618074100000000E+00 1 -0.2424856414000000E+02
         # Potential name:  GTH-PBE-Q20  for symbol:  DY
         # Potential read from the potential filename: ../POTENTIAL
       &END POTENTIAL
     &END KIND
     &KIND Tb
       BASIS_SET SZV-MOLOPT-SR-GTH
       POTENTIAL GTH-PBE-q19
     &END KIND
     &KIND Ho
       BASIS_SET SZV-MOLOPT-SR-GTH
       POTENTIAL GTH-PBE-q21
     &END KIND
     &KIND Gd
       BASIS_SET SZV-MOLOPT-SR-GTH
       POTENTIAL GTH-PBE-q18
     &END KIND
     &KIND Lu
       BASIS_SET SZV-MOLOPT-SR-GTH
       POTENTIAL GTH-PBE-q25
     &END KIND
     &KIND Pm
       BASIS_SET SZV-MOLOPT-SR-GTH
       POTENTIAL GTH-PBE-q15
     &END KIND
     &KIND Tm
       BASIS_SET SZV-MOLOPT-SR-GTH
       POTENTIAL GTH-PBE-q23
     &END KIND
     &KIND F
       BASIS_SET SZV-GTH-PADE
       POTENTIAL GTH-PBE-q7
       &POTENTIAL
 2 5
  0.2149295900000000E+00 2 -0.2157302836000000E+02  0.3199776150000000E+01
 2
  0.1946840200000000E+00 1  0.2374354045000000E+02
  0.1861560800000000E+00 0
         # Potential name:  GTH-PBE-Q7  for symbol:  F
         # Potential read from the potential filename: ../POTENTIAL
       &END POTENTIAL
     &END KIND
     &KIND S
       BASIS_SET SZV-GTH-PADE
       POTENTIAL GTH-PBE-q6
     &END KIND
     &KIND Na
       BASIS_SET SZV-GTH-PADE
       POTENTIAL GTH-PBE-q9
     &END KIND
     &KIND B
       BASIS_SET SZV-GTH-PADE
       POTENTIAL GTH-PBE-q3
     &END KIND
     &KIND Cl
       BASIS_SET SZV-GTH-PADE
       POTENTIAL GTH-PBE-q7
     &END KIND
     &KIND H
       BASIS_SET SZV-GTH-PADE
       POTENTIAL GTH-PBE-q1
       &POTENTIAL
 1
  0.2000000000000000E+00 2 -0.4178900440000000E+01  0.7244633100000000E+00
 0
         # Potential name:  GTH-PBE-Q1  for symbol:  H
         # Potential read from the potential filename: ../POTENTIAL
       &END POTENTIAL
     &END KIND
     &KIND N
       BASIS_SET SZV-GTH-PADE
       POTENTIAL GTH-PBE-q5
     &END KIND
     &KIND O
       BASIS_SET SZV-GTH-PADE
       POTENTIAL GTH-PBE-q6
       &POTENTIAL
 2 4
  0.2445543000000000E+00 2 -0.1666721480000000E+02  0.2487311320000000E+01
 2
  0.2209559200000000E+00 1  0.1833745811000000E+02
  0.2113324700000000E+00 0
         # Potential name:  GTH-PBE-Q6  for symbol:  O
         # Potential read from the potential filename: ../POTENTIAL
       &END POTENTIAL
     &END KIND
     &KIND C
       BASIS_SET SZV-GTH-PADE
       POTENTIAL GTH-PBE-q4
       &POTENTIAL
 2 2
  0.3384712400000000E+00 2 -0.8803673979999999E+01  0.1339210850000000E+01
 2
  0.3025757500000000E+00 1  0.9622486650000001E+01
  0.2915069400000000E+00 0
         # Potential name:  GTH-PBE-Q4  for symbol:  C
         # Potential read from the potential filename: ../POTENTIAL
       &END POTENTIAL
     &END KIND
     &TOPOLOGY
       COORD_FILE_NAME ../../Dy_L18_L20_L20_MeO_O.xyz
       COORD_FILE_FORMAT  XYZ
       NUMBER_OF_ATOMS  51
       MULTIPLE_UNIT_CELL  1 1 1
     &END TOPOLOGY
   &END SUBSYS
 &END FORCE_EVAL
