 # Version information for this restart file 
 # current date 2023-03-24 23:18:37.291
 # current working dir /mnt/scratch2/users/40265864/MSc_ML_MM/ln_replacements/xyz/Dy_L18_L20_L20_MeO_O/geometry_optimisation/run-0
 # Program compiled at                              Mon 24 Oct 18:14:20 BST 2022
 # Program compiled on                          login1.pri.kelvin2.alces.network
 # Program compiled for                                                    local
 # Source code revision number                                         svn:17462
 &GLOBAL
   PRINT_LEVEL  LOW
   PROJECT_NAME molecule_name
   RUN_TYPE  GEO_OPT
 &END GLOBAL
 &MOTION
   &GEO_OPT
     OPTIMIZER  BFGS
     MAX_DR     5.0000000000000000E-01
     MAX_FORCE     5.0000000000000000E-01
     RMS_DR     5.0000000000000003E-02
     RMS_FORCE     5.0000000000000003E-02
     STEP_START_VAL  199
   &END GEO_OPT
 &END MOTION
 &FORCE_EVAL
   METHOD  QS
   &DFT
     BASIS_SET_FILE_NAME ../BASIS_MOLOPT_UCL
     BASIS_SET_FILE_NAME BASIS_SET
     POTENTIAL_FILE_NAME ../POTENTIAL
     UKS  T
     MULTIPLICITY  0
     CHARGE  3
     &SCF
       MAX_SCF  50
       EPS_SCF     5.0000000000000002E-05
       SCF_GUESS  RESTART
       &OT  T
         MINIMIZER  DIIS
         PRECONDITIONER  FULL_KINETIC
       &END OT
       &OUTER_SCF  T
         EPS_SCF     5.0000000000000002E-05
         MAX_SCF  20
       &END OUTER_SCF
     &END SCF
     &MGRID
       NGRIDS  2
       CUTOFF     4.0000000000000000E+02
       REL_CUTOFF     5.0000000000000000E+01
     &END MGRID
     &XC
       DENSITY_CUTOFF     1.0000000000000000E-10
       GRADIENT_CUTOFF     1.0000000000000000E-10
       TAU_CUTOFF     1.0000000000000000E-10
       &XC_FUNCTIONAL  NO_SHORTCUT
         &PBE  T
         &END PBE
       &END XC_FUNCTIONAL
     &END XC
   &END DFT
   &SUBSYS
     &CELL
       A     1.1000000000000000E+01    0.0000000000000000E+00    0.0000000000000000E+00
       B     0.0000000000000000E+00    9.0000000000000000E+00    0.0000000000000000E+00
       C     0.0000000000000000E+00    0.0000000000000000E+00    1.1000000000000000E+01
       PERIODIC  NONE
       MULTIPLE_UNIT_CELL  1 1 1
     &END CELL
     &COORD
C   -1.1649251074418704E-01   -4.8087551229812595E+00   -7.2803817942258953E-01
O   -8.1428694940201130E-01   -3.9063841307710652E+00   -7.4599175246669625E-01
Dy   -1.7088759093569317E-01   -3.4483648519209145E+00    7.0527682529654379E-01
O    1.2859344968599661E-02    2.7766722331375191E+00    1.2452280757979287E-02
O    1.3590842643715031E+00   -3.1281708711628151E+00    1.1018213509621178E+00
C   -1.6171245703109687E+00   -4.2320737683422109E+00    1.6391855765632354E-01
C   -2.4086956618133000E+00   -3.7764334183020751E+00    8.2348751368499118E-01
C   -1.6326097525082077E+00   -3.2725535377805275E+00    1.5352853589665867E+00
C   -2.9571816865443150E+00    4.9224059497719930E+00    1.2129880734820302E+01
O   -2.1844803776013797E+00    4.4342786069341749E+00    1.0904261798443969E+01
C   -1.0175510678661308E+00    5.3816508174219777E+00    1.1816083811569150E+01
O   -7.2718054627408080E-01    3.7893065328173439E+00   -5.7492923990622624E-01
C   -1.0910254382000524E-01    4.3606629631779841E+00    5.8332272847034650E-01
C   -1.7827859116785940E+00    3.8949670724121219E+00    1.3439210641612515E-01
C   -2.3274396731578197E+00    4.5211929659646701E+00    1.4064832328488444E+00
C   -1.6721148870719071E+00    5.8278435863781226E+00    2.8529037447161593E-01
O   -1.2060604093211340E+00    4.6357106426927688E+00    8.5496564216480031E-01
C   -7.0517416151020762E-01    5.2019550315239949E+00    3.4959981833491020E-02
F   -2.8589413933552552E+00    5.7042254697953583E+00    1.1544146212538489E+00
F    5.1487918778812103E-01    5.9480625110793985E+00    1.2006221642040571E+00
F   -8.9416900368696739E-01    5.9618095185719131E+00    1.2692787630685713E+00
O   -3.2976252003648476E-01   -4.6405637919156959E+00    1.9959600741119479E+00
C    2.4481702314101270E-01   -3.5719579917439788E+00    2.0961460551386564E+00
C   -2.4951716445403654E-02   -3.8937923698008063E+00    3.4115069083653422E+00
C    1.7839060988050182E-01   -2.1184446146833680E+00    1.5469632522822068E+00
C    1.3558121855637056E-01    2.4065956397558050E+00    1.6609795938381573E+00
O   -8.7803900151068892E-01    2.8055936068675749E+00    1.0301068139740777E+00
C    3.7660076983849711E-02    3.8042588514345779E+00    1.6589313164302313E+00
F    1.2336251681508985E+00    4.1445109791688477E+00    2.5185646961296073E+00
F   -2.2160587679223565E-01    4.8922864408777240E+00    2.7102949488701893E+00
F    2.0672752551576896E+00    5.8176448856083942E+00    1.0855304802202592E+00
H   -1.8074775560570810E-01   -5.9632418730983447E+00    1.2065324344841821E+00
H    5.5488671331309997E-02   -5.6198231281756748E+00    1.8422808652219863E-01
H   -5.5788063656817799E-01   -2.8804135679421443E+00   -5.7615261062815437E-01
H   -9.8347706064210549E-01    5.2041834445964454E+00    1.9399729861402257E+00
H    8.2278252514637884E-01    3.5261364413270182E+00    2.5410390632930796E-01
H   -3.1243812620664468E+00   -4.1281888817900887E+00    2.1113689169617205E+00
H   -3.0628216575696428E+00   -3.2406133644595378E+00    1.9659872685363078E-01
H    8.9047226543686619E-01   -4.3792752532510653E+00    2.5351740354342347E+00
H   -4.0642032766597982E+00   -3.6668191087008566E+00    1.0723905535181020E+00
H   -5.6576310790464313E-01    4.4210867279865456E+00    1.0757747968957549E+01
H   -2.4153595960713892E-01    3.2364636674318041E+00    1.1762836164222806E+01
H   -3.3310791753375604E+00    3.9801502964396875E+00    1.2251649791104203E+01
H   -1.9857628532423619E+00    4.5102597356759206E+00   -8.7642446233823934E-01
H   -3.5056635096270861E+00    4.6469642781883085E+00    3.1622915863215417E-01
H   -2.3523703057069780E+00    5.2749274333381466E+00   -2.3408216207671501E-01
H   -1.0397984410161027E+00    6.8216314039469141E+00    9.8943088075012242E-01
H    3.0849044196800340E-01   -3.7765645643560641E+00    4.5390697446898045E+00
H   -9.0297606993669899E-01   -4.9289014543352181E+00    2.8995020898851434E+00
H    1.8609970283237121E+00   -3.9700737117289520E+00    2.5105395616975592E+00
H    2.3095338956721010E+00   -2.4460032659116564E+00    6.0347624528122179E-01
     &END COORD
     &KIND Dy
       BASIS_SET SZV-MOLOPT-SR-GTH
       POTENTIAL GTH-PBE-q20
       &POTENTIAL
 4 6 0 10
  0.5102968700000000E+00 2  0.1767093508000000E+02 -0.8678777000000000E+00
 4
  0.4421234800000000E+00 2 -0.2715733840000000E+01  0.4017884260000000E+01
 -0.5187066270000000E+01
  0.4501723000000000E+00 2 -0.2773475350000000E+01  0.2201152450000000E+01
 -0.2604438700000000E+01
  0.4711651400000000E+00 1 -0.7522756100000000E+00
  0.2618074100000000E+00 1 -0.2424856414000000E+02
         # Potential name:  GTH-PBE-Q20  for symbol:  DY
         # Potential read from the potential filename: ../POTENTIAL
       &END POTENTIAL
     &END KIND
     &KIND Tb
       BASIS_SET SZV-MOLOPT-SR-GTH
       POTENTIAL GTH-PBE-q19
     &END KIND
     &KIND Ho
       BASIS_SET SZV-MOLOPT-SR-GTH
       POTENTIAL GTH-PBE-q21
     &END KIND
     &KIND Gd
       BASIS_SET SZV-MOLOPT-SR-GTH
       POTENTIAL GTH-PBE-q18
     &END KIND
     &KIND Lu
       BASIS_SET SZV-MOLOPT-SR-GTH
       POTENTIAL GTH-PBE-q25
     &END KIND
     &KIND Pm
       BASIS_SET SZV-MOLOPT-SR-GTH
       POTENTIAL GTH-PBE-q15
     &END KIND
     &KIND Tm
       BASIS_SET SZV-MOLOPT-SR-GTH
       POTENTIAL GTH-PBE-q23
     &END KIND
     &KIND F
       BASIS_SET SZV-GTH-PADE
       POTENTIAL GTH-PBE-q7
       &POTENTIAL
 2 5
  0.2149295900000000E+00 2 -0.2157302836000000E+02  0.3199776150000000E+01
 2
  0.1946840200000000E+00 1  0.2374354045000000E+02
  0.1861560800000000E+00 0
         # Potential name:  GTH-PBE-Q7  for symbol:  F
         # Potential read from the potential filename: ../POTENTIAL
       &END POTENTIAL
     &END KIND
     &KIND S
       BASIS_SET SZV-GTH-PADE
       POTENTIAL GTH-PBE-q6
     &END KIND
     &KIND Na
       BASIS_SET SZV-GTH-PADE
       POTENTIAL GTH-PBE-q9
     &END KIND
     &KIND B
       BASIS_SET SZV-GTH-PADE
       POTENTIAL GTH-PBE-q3
     &END KIND
     &KIND Cl
       BASIS_SET SZV-GTH-PADE
       POTENTIAL GTH-PBE-q7
     &END KIND
     &KIND H
       BASIS_SET SZV-GTH-PADE
       POTENTIAL GTH-PBE-q1
       &POTENTIAL
 1
  0.2000000000000000E+00 2 -0.4178900440000000E+01  0.7244633100000000E+00
 0
         # Potential name:  GTH-PBE-Q1  for symbol:  H
         # Potential read from the potential filename: ../POTENTIAL
       &END POTENTIAL
     &END KIND
     &KIND N
       BASIS_SET SZV-GTH-PADE
       POTENTIAL GTH-PBE-q5
     &END KIND
     &KIND O
       BASIS_SET SZV-GTH-PADE
       POTENTIAL GTH-PBE-q6
       &POTENTIAL
 2 4
  0.2445543000000000E+00 2 -0.1666721480000000E+02  0.2487311320000000E+01
 2
  0.2209559200000000E+00 1  0.1833745811000000E+02
  0.2113324700000000E+00 0
         # Potential name:  GTH-PBE-Q6  for symbol:  O
         # Potential read from the potential filename: ../POTENTIAL
       &END POTENTIAL
     &END KIND
     &KIND C
       BASIS_SET SZV-GTH-PADE
       POTENTIAL GTH-PBE-q4
       &POTENTIAL
 2 2
  0.3384712400000000E+00 2 -0.8803673979999999E+01  0.1339210850000000E+01
 2
  0.3025757500000000E+00 1  0.9622486650000001E+01
  0.2915069400000000E+00 0
         # Potential name:  GTH-PBE-Q4  for symbol:  C
         # Potential read from the potential filename: ../POTENTIAL
       &END POTENTIAL
     &END KIND
     &TOPOLOGY
       COORD_FILE_NAME ../../Dy_L18_L20_L20_MeO_O.xyz
       COORD_FILE_FORMAT  XYZ
       NUMBER_OF_ATOMS  51
       MULTIPLE_UNIT_CELL  1 1 1
     &END TOPOLOGY
   &END SUBSYS
 &END FORCE_EVAL
