 # Version information for this restart file 
 # current date 2023-03-24 23:18:08.693
 # current working dir /mnt/scratch2/users/40265864/MSc_ML_MM/ln_replacements/xyz/Dy_L18_L20_L20_MeO_O/geometry_optimisation/run-0
 # Program compiled at                              Mon 24 Oct 18:14:20 BST 2022
 # Program compiled on                          login1.pri.kelvin2.alces.network
 # Program compiled for                                                    local
 # Source code revision number                                         svn:17462
 &GLOBAL
   PRINT_LEVEL  LOW
   PROJECT_NAME molecule_name
   RUN_TYPE  GEO_OPT
 &END GLOBAL
 &MOTION
   &GEO_OPT
     OPTIMIZER  BFGS
     MAX_DR     5.0000000000000000E-01
     MAX_FORCE     5.0000000000000000E-01
     RMS_DR     5.0000000000000003E-02
     RMS_FORCE     5.0000000000000003E-02
     STEP_START_VAL  197
   &END GEO_OPT
 &END MOTION
 &FORCE_EVAL
   METHOD  QS
   &DFT
     BASIS_SET_FILE_NAME ../BASIS_MOLOPT_UCL
     BASIS_SET_FILE_NAME BASIS_SET
     POTENTIAL_FILE_NAME ../POTENTIAL
     UKS  T
     MULTIPLICITY  0
     CHARGE  3
     &SCF
       MAX_SCF  50
       EPS_SCF     5.0000000000000002E-05
       SCF_GUESS  RESTART
       &OT  T
         MINIMIZER  DIIS
         PRECONDITIONER  FULL_KINETIC
       &END OT
       &OUTER_SCF  T
         EPS_SCF     5.0000000000000002E-05
         MAX_SCF  20
       &END OUTER_SCF
     &END SCF
     &MGRID
       NGRIDS  2
       CUTOFF     4.0000000000000000E+02
       REL_CUTOFF     5.0000000000000000E+01
     &END MGRID
     &XC
       DENSITY_CUTOFF     1.0000000000000000E-10
       GRADIENT_CUTOFF     1.0000000000000000E-10
       TAU_CUTOFF     1.0000000000000000E-10
       &XC_FUNCTIONAL  NO_SHORTCUT
         &PBE  T
         &END PBE
       &END XC_FUNCTIONAL
     &END XC
   &END DFT
   &SUBSYS
     &CELL
       A     1.1000000000000000E+01    0.0000000000000000E+00    0.0000000000000000E+00
       B     0.0000000000000000E+00    9.0000000000000000E+00    0.0000000000000000E+00
       C     0.0000000000000000E+00    0.0000000000000000E+00    1.1000000000000000E+01
       PERIODIC  NONE
       MULTIPLE_UNIT_CELL  1 1 1
     &END CELL
     &COORD
C   -1.5318452727770562E-01   -4.7310070268436277E+00   -7.2528742751060771E-01
O   -8.4256572456906675E-01   -3.8081211857044002E+00   -7.8831833739040436E-01
Dy   -2.5038741417895777E-01   -3.4064112542620348E+00    6.9872462336993946E-01
O    1.1423829937938453E-01    2.8225495991124725E+00   -3.2508518680319357E-02
O    1.3277953574847696E+00   -3.1602775846006304E+00    1.1158788277619740E+00
C   -1.6523147627326364E+00   -4.3118259656274001E+00    1.7056009251158813E-01
C   -2.5020547814268457E+00   -3.7681854085268682E+00    7.4873209508029914E-01
C   -1.7563028998826586E+00   -3.2874318988236682E+00    1.4471440137536471E+00
C   -3.0689604684197089E+00    4.9256965689920138E+00    1.2084354590658132E+01
O   -2.2692684131086858E+00    4.4487418743006115E+00    1.0867414835018591E+01
C   -1.0080896243439792E+00    5.3313821764343707E+00    1.1773554933582632E+01
O   -7.4159196100125746E-01    3.8392977948532945E+00   -6.1334800325322192E-01
C   -1.1942390827567535E-01    4.3235144858617378E+00    5.7523122746042932E-01
C   -1.8691668953925868E+00    3.9104952331526910E+00    9.9009798263236193E-02
C   -2.3806052121369703E+00    4.4763909231877017E+00    1.3494307095195979E+00
C   -1.6549207121021230E+00    5.7512404761107199E+00    2.5652097849101030E-01
O   -1.2150629176398715E+00    4.5772653367427347E+00    8.6612992607785610E-01
C   -7.1223906448863805E-01    5.2396565265684494E+00    6.8699397838133591E-03
F   -2.9650563406273385E+00    5.6715434771300934E+00    1.0732580774944231E+00
F    4.9758428006215139E-01    5.9132803205319329E+00    1.2108552252917901E+00
F   -9.9522603162452139E-01    5.9881116058281361E+00    1.2185890017899148E+00
O   -2.3223714520230190E-01   -4.5968481889923556E+00    2.0980676808469618E+00
C    3.2168524936707749E-01   -3.4377354863018410E+00    2.1760720253300696E+00
C    1.6777901010688180E-03   -3.8679516007724328E+00    3.5457743521923031E+00
C    3.1240850929405850E-01   -2.1728612816403405E+00    1.3323986285999423E+00
C    3.2642260606889434E-01    2.5061710327878237E+00    1.6246143293626134E+00
O   -7.1029240845769337E-01    2.6672750914729226E+00    9.3218089823463435E-01
C    1.5073335389428361E-01    3.8179923848355535E+00    1.7280995031260085E+00
F    1.2781897443279924E+00    4.0893937713993411E+00    2.7479868154574900E+00
F   -1.9658547664746087E-01    5.0241022654499945E+00    2.8152403541453879E+00
F    2.0054021227545871E+00    5.7536852089457717E+00    1.0817924050482313E+00
H   -2.3440529444961594E-01   -6.0781917984690290E+00    1.3259917684811509E+00
H    5.0365478097279440E-02   -5.6548130120741247E+00    2.3736223348271895E-01
H   -6.6448923064822263E-01   -2.8205093895041706E+00   -6.7688728738347437E-01
H   -8.9875344870953355E-01    5.0674604293126757E+00    1.8210359049337463E+00
H    9.5823135835461115E-01    3.3549994057757080E+00    4.1886215438405860E-01
H   -3.3480545213102899E+00   -4.1467780973134492E+00    2.0588153760803198E+00
H   -3.1776748879193168E+00   -3.2364940517358014E+00    9.8776498431255924E-02
H    9.9587500274737861E-01   -4.4416486167627580E+00    2.6437156268064239E+00
H   -3.9720067588502497E+00   -3.4488650709978268E+00    1.2998172688991649E+00
H   -6.3834772567771481E-01    4.4125867120793041E+00    1.0732676815139778E+01
H   -1.5848092157262425E-01    3.1740897559603574E+00    1.1622308181960170E+01
H   -3.3749365909841798E+00    3.9018996260406440E+00    1.2079950332237877E+01
H   -2.1482854720572777E+00    4.5099721709978411E+00   -9.7556266522561530E-01
H   -3.5367030114506295E+00    4.6850026154381883E+00    2.2182762577582932E-01
H   -2.4060779694719332E+00    5.2592346764714630E+00   -2.6418010239219142E-01
H   -1.0631959424929487E+00    6.9884955754897975E+00    1.0843489719361685E+00
H    3.7989772594089666E-01   -3.6429473848323002E+00    4.6527162810020393E+00
H   -8.4012933506432275E-01   -4.8828704037037687E+00    2.8962017549855115E+00
H    1.9162034018200300E+00   -3.9287671222280633E+00    2.6426096858969639E+00
H    2.1591614410880475E+00   -2.4464692859841066E+00    8.2150408040120693E-01
     &END COORD
     &KIND Dy
       BASIS_SET SZV-MOLOPT-SR-GTH
       POTENTIAL GTH-PBE-q20
       &POTENTIAL
 4 6 0 10
  0.5102968700000000E+00 2  0.1767093508000000E+02 -0.8678777000000000E+00
 4
  0.4421234800000000E+00 2 -0.2715733840000000E+01  0.4017884260000000E+01
 -0.5187066270000000E+01
  0.4501723000000000E+00 2 -0.2773475350000000E+01  0.2201152450000000E+01
 -0.2604438700000000E+01
  0.4711651400000000E+00 1 -0.7522756100000000E+00
  0.2618074100000000E+00 1 -0.2424856414000000E+02
         # Potential name:  GTH-PBE-Q20  for symbol:  DY
         # Potential read from the potential filename: ../POTENTIAL
       &END POTENTIAL
     &END KIND
     &KIND Tb
       BASIS_SET SZV-MOLOPT-SR-GTH
       POTENTIAL GTH-PBE-q19
     &END KIND
     &KIND Ho
       BASIS_SET SZV-MOLOPT-SR-GTH
       POTENTIAL GTH-PBE-q21
     &END KIND
     &KIND Gd
       BASIS_SET SZV-MOLOPT-SR-GTH
       POTENTIAL GTH-PBE-q18
     &END KIND
     &KIND Lu
       BASIS_SET SZV-MOLOPT-SR-GTH
       POTENTIAL GTH-PBE-q25
     &END KIND
     &KIND Pm
       BASIS_SET SZV-MOLOPT-SR-GTH
       POTENTIAL GTH-PBE-q15
     &END KIND
     &KIND Tm
       BASIS_SET SZV-MOLOPT-SR-GTH
       POTENTIAL GTH-PBE-q23
     &END KIND
     &KIND F
       BASIS_SET SZV-GTH-PADE
       POTENTIAL GTH-PBE-q7
       &POTENTIAL
 2 5
  0.2149295900000000E+00 2 -0.2157302836000000E+02  0.3199776150000000E+01
 2
  0.1946840200000000E+00 1  0.2374354045000000E+02
  0.1861560800000000E+00 0
         # Potential name:  GTH-PBE-Q7  for symbol:  F
         # Potential read from the potential filename: ../POTENTIAL
       &END POTENTIAL
     &END KIND
     &KIND S
       BASIS_SET SZV-GTH-PADE
       POTENTIAL GTH-PBE-q6
     &END KIND
     &KIND Na
       BASIS_SET SZV-GTH-PADE
       POTENTIAL GTH-PBE-q9
     &END KIND
     &KIND B
       BASIS_SET SZV-GTH-PADE
       POTENTIAL GTH-PBE-q3
     &END KIND
     &KIND Cl
       BASIS_SET SZV-GTH-PADE
       POTENTIAL GTH-PBE-q7
     &END KIND
     &KIND H
       BASIS_SET SZV-GTH-PADE
       POTENTIAL GTH-PBE-q1
       &POTENTIAL
 1
  0.2000000000000000E+00 2 -0.4178900440000000E+01  0.7244633100000000E+00
 0
         # Potential name:  GTH-PBE-Q1  for symbol:  H
         # Potential read from the potential filename: ../POTENTIAL
       &END POTENTIAL
     &END KIND
     &KIND N
       BASIS_SET SZV-GTH-PADE
       POTENTIAL GTH-PBE-q5
     &END KIND
     &KIND O
       BASIS_SET SZV-GTH-PADE
       POTENTIAL GTH-PBE-q6
       &POTENTIAL
 2 4
  0.2445543000000000E+00 2 -0.1666721480000000E+02  0.2487311320000000E+01
 2
  0.2209559200000000E+00 1  0.1833745811000000E+02
  0.2113324700000000E+00 0
         # Potential name:  GTH-PBE-Q6  for symbol:  O
         # Potential read from the potential filename: ../POTENTIAL
       &END POTENTIAL
     &END KIND
     &KIND C
       BASIS_SET SZV-GTH-PADE
       POTENTIAL GTH-PBE-q4
       &POTENTIAL
 2 2
  0.3384712400000000E+00 2 -0.8803673979999999E+01  0.1339210850000000E+01
 2
  0.3025757500000000E+00 1  0.9622486650000001E+01
  0.2915069400000000E+00 0
         # Potential name:  GTH-PBE-Q4  for symbol:  C
         # Potential read from the potential filename: ../POTENTIAL
       &END POTENTIAL
     &END KIND
     &TOPOLOGY
       COORD_FILE_NAME ../../Dy_L18_L20_L20_MeO_O.xyz
       COORD_FILE_FORMAT  XYZ
       NUMBER_OF_ATOMS  51
       MULTIPLE_UNIT_CELL  1 1 1
     &END TOPOLOGY
   &END SUBSYS
 &END FORCE_EVAL
