 # Version information for this restart file 
 # current date 2023-03-26 17:03:38.029
 # current working dir /mnt/scratch2/users/40265864/MSc_ML_MM/ln_replacements/xyz/Gd_L6_O_O_O_O/geometry_optimisation/run-6
 # Program compiled at                              Mon 24 Oct 18:14:20 BST 2022
 # Program compiled on                          login1.pri.kelvin2.alces.network
 # Program compiled for                                                    local
 # Source code revision number                                         svn:17462
 &GLOBAL
   PRINT_LEVEL  LOW
   PROJECT_NAME molecule_name
   RUN_TYPE  GEO_OPT
 &END GLOBAL
 &MOTION
   &GEO_OPT
     OPTIMIZER  BFGS
     MAX_DR     5.0000000000000000E-01
     MAX_FORCE     5.0000000000000000E-01
     RMS_DR     5.0000000000000003E-02
     RMS_FORCE     5.0000000000000003E-02
     STEP_START_VAL  1
   &END GEO_OPT
 &END MOTION
 &FORCE_EVAL
   METHOD  QS
   &DFT
     BASIS_SET_FILE_NAME ../BASIS_MOLOPT_UCL
     BASIS_SET_FILE_NAME BASIS_SET
     POTENTIAL_FILE_NAME ../POTENTIAL
     UKS  T
     MULTIPLICITY  6
     CHARGE  3
     &SCF
       MAX_SCF  50
       EPS_SCF     5.0000000000000002E-05
       SCF_GUESS  RESTART
       &OT  T
         MINIMIZER  DIIS
         PRECONDITIONER  FULL_KINETIC
       &END OT
       &OUTER_SCF  T
         EPS_SCF     5.0000000000000002E-05
         MAX_SCF  20
       &END OUTER_SCF
     &END SCF
     &MGRID
       NGRIDS  2
       CUTOFF     4.0000000000000000E+02
       REL_CUTOFF     5.0000000000000000E+01
     &END MGRID
     &XC
       DENSITY_CUTOFF     1.0000000000000000E-10
       GRADIENT_CUTOFF     1.0000000000000000E-10
       TAU_CUTOFF     1.0000000000000000E-10
       &XC_FUNCTIONAL  NO_SHORTCUT
         &PBE  T
         &END PBE
       &END XC_FUNCTIONAL
     &END XC
   &END DFT
   &SUBSYS
     &CELL
       A     3.6000000000000000E+01    0.0000000000000000E+00    0.0000000000000000E+00
       B     0.0000000000000000E+00    3.4000000000000000E+01    0.0000000000000000E+00
       C     0.0000000000000000E+00    0.0000000000000000E+00    3.8000000000000007E+01
       PERIODIC  NONE
       MULTIPLE_UNIT_CELL  1 1 1
     &END CELL
     &COORD
C    7.4344916251103554E-01    1.6794315619488336E+00    2.3274980186916685E+00
C   -2.6501420951002431E-03    7.2236014318635111E-01    1.3286619282118493E+00
C    7.8977627480623436E-01    5.5303606714774045E-01   -1.1576291051558217E-02
C    6.8283301954603179E-02   -4.3860821968888597E-01   -9.9370304418064526E-01
C    9.6584675800974940E-01   -6.4965316041360199E-01   -2.2658643643193614E+00
C    3.1311059835611710E-01   -1.6362811773203279E+00   -3.3002454477456813E+00
C    1.2645052043836866E+00   -1.8442883072423015E+00   -4.5369803586317774E+00
C    6.4770995347238380E-01   -2.8626934195357481E+00   -5.5655652339467627E+00
C    1.6064889501281643E+00   -3.1320720523017243E+00   -6.7878704897091620E+00
C    1.0465989894144252E+00   -4.3223818909016769E+00   -7.6610430371669862E+00
C    1.7537126826770715E+00   -4.4125849482702399E+00   -9.0621807554965095E+00
C    1.1722075598301664E+00   -5.5405672686318281E+00   -1.0003990917809038E+01
O    1.7314101373029027E+00   -5.1741571396287291E+00   -1.1369634500309909E+01
C    1.0523725546204517E+00   -6.2411646246189534E+00   -1.2211421370383478E+01
C    1.8951790035818969E+00   -6.1889063849732180E+00   -1.3548587632930682E+01
O    3.3034383405189858E+00   -6.5948919654172231E+00   -1.3201406403417932E+01
C    3.9805688251641107E+00   -6.5375324649824247E+00   -1.4457409191702759E+01
C    3.8806430853819345E+00   -7.6818867407357558E+00   -1.5364870299165549E+01
C    4.6164442828896552E+00   -7.5131528093685063E+00   -1.6587321677849381E+01
C    5.3299966547001469E+00   -6.3057500906774866E+00   -1.6885326026050432E+01
C    5.5143430084280878E+00   -5.1713222130928935E+00   -1.6028134904578511E+01
C    4.8133497049650105E+00   -5.3388821061682377E+00   -1.4766461023322602E+01
O    4.9641890348326934E+00   -4.2427726834605970E+00   -1.3868487905792938E+01
C    6.0006249311063460E+00   -4.7510251015538643E+00   -1.2906247765174722E+01
C    6.4696585908481259E+00   -3.4881230538948347E+00   -1.2070379105908689E+01
O    5.2916717493784997E+00   -2.9667451541017464E+00   -1.1282827441438053E+01
C    4.7249318705355439E+00   -1.9001494879063254E+00   -1.2194782190749255E+01
C    3.2694639079542580E+00   -1.6616814376252600E+00   -1.1634511068244848E+01
C    2.2943539835589317E+00   -1.1599677942921154E+00   -1.2752875869564789E+01
C    8.3239228437352986E-01   -1.0597949189538667E+00   -1.2191371673056484E+01
C   -1.7556355840590734E-01   -8.1320479602204399E-01   -1.3371380092584694E+01
C   -1.6321357894070927E+00   -6.3602449860299359E-01   -1.2821319573733939E+01
C   -2.6664839792065784E+00   -4.1056143342663926E-01   -1.3978471011045283E+01
C   -4.1012118265495401E+00   -2.1079286164769967E-01   -1.3380200340784929E+01
C   -5.1411575150731537E+00    1.1596569879799257E-01   -1.4504569053245586E+01
C   -6.5518005436064319E+00    3.8452763212999569E-01   -1.3881405431259381E+01
C   -7.5862680450301401E+00    8.2088116868055172E-01   -1.4972740531448897E+01
C   -9.0069566247221768E+00    1.1521813428875305E+00   -1.4370588134486958E+01
C    7.4924540392807453E+00   -4.0120193210903103E+00   -1.0988489713687390E+01
C    6.0246933082843226E+00   -6.5467460721864326E+00   -1.8131029013656679E+01
N    6.7548211948592094E+00   -5.5425110505372341E+00   -1.8701030142018723E+01
C    7.4443412220156153E+00   -5.9278379978031932E+00   -1.9832770125953687E+01
N    7.6985823100373336E+00   -7.2216724177626110E+00   -2.0359288224899224E+01
Gd    6.5573058745766417E+00   -9.1710084094907547E+00   -2.0290313873015538E+01
N    5.8252650928234475E+00   -7.8764632950582500E+00   -1.8525804436472306E+01
C    4.7936784587970465E+00   -8.4198563154954726E+00   -1.7733246191842436E+01
N    4.5854720870636880E+00   -9.7810700961014589E+00   -1.7497215223431784E+01
C    5.6913572598069360E+00   -1.0624360097455256E+01   -1.7585222264937919E+01
C    6.1721405567488370E+00   -1.1224967868670159E+01   -1.6321696060239887E+01
C    5.4490442636873491E+00   -1.1475548805216327E+01   -1.5111258222690875E+01
C    6.2500316236380913E+00   -1.2114996087622107E+01   -1.4081822223659406E+01
O    5.5471484443328105E+00   -1.2675276743452322E+01   -1.2985099075726877E+01
C    5.5533254921964925E+00   -1.1626667853629533E+01   -1.1925818411296287E+01
C    4.8391962137147191E+00   -1.2330272800170974E+01   -1.0695242031384870E+01
O    5.7753022857982126E+00   -1.3181206296400283E+01   -9.8774751359766952E+00
C    5.8807049005638623E+00   -1.4447199606455825E+01   -1.0704651756790833E+01
C    6.8382845030872916E+00   -1.5378046883519502E+01   -9.8635512299165065E+00
C    7.2989244487879770E+00   -1.6625064386670822E+01   -1.0702710926382137E+01
C    8.4966216269711659E+00   -1.7389235714779481E+01   -1.0026806205682442E+01
C    9.0736300832206833E+00   -1.8451900193806125E+01   -1.1031144138235167E+01
C    1.0329947333238874E+01   -1.9198725299523307E+01   -1.0459967887952509E+01
C    1.0913136259562201E+01   -2.0176183840935717E+01   -1.1541558409193570E+01
C    1.2144111925877091E+01   -2.0977674008132343E+01   -1.0993768757595888E+01
C    1.2677553439017986E+01   -2.1964938332105618E+01   -1.2090187077701010E+01
C    1.3849032544482297E+01   -2.2832359345375792E+01   -1.1518882479225274E+01
C    1.4348323663719494E+01   -2.3865277048003346E+01   -1.2582871692397992E+01
C    1.5470708026840905E+01   -2.4795386555460027E+01   -1.1998205872064879E+01
C    4.4167092263737073E+00   -1.1161262923166726E+01   -9.7228578825397758E+00
C    7.7276343987752769E+00   -1.2273684243157053E+01   -1.4185671538664986E+01
C    8.4559168758866434E+00   -1.2077560731973101E+01   -1.5443958040399336E+01
C    7.5676686613453477E+00   -1.1547180008560415E+01   -1.6443885970637396E+01
C    7.9348870320709262E+00   -1.1069460380238603E+01   -1.7771638919973096E+01
N    9.2119784377141514E+00   -1.1230282607116511E+01   -1.8226847782543786E+01
C    9.5086184088277790E+00   -1.0524892213068686E+01   -1.9371359409184144E+01
N    8.7918318215855766E+00   -9.5743393518235465E+00   -2.0101639897383066E+01
C    9.6051513411875078E+00   -9.2126002897626513E+00   -2.1215665766614787E+01
N    9.6054442854480939E+00   -7.9892190427777567E+00   -2.1840000000000003E+01
C    8.6723066567512639E+00   -7.0673579087710392E+00   -2.1404049080877321E+01
C    9.1208743913707551E+00   -5.6765209260325884E+00   -2.1403756292236135E+01
C    8.3724670345042149E+00   -4.9671381749777996E+00   -2.0409983626938427E+01
C    8.6864648597331762E+00   -3.6687729474949498E+00   -1.9888769523589005E+01
C    9.8794693116319330E+00   -3.1141439352164011E+00   -2.0512392134710115E+01
O    1.0275119852043680E+01   -1.8546702425338377E+00   -1.9982524212939907E+01
C    1.1504272692943196E+01   -2.2117023998374226E+00   -1.9187311693902469E+01
C    1.2034215308675559E+01   -8.5223450990725569E-01   -1.8555938976095799E+01
O    1.2766411857317980E+01    4.3381362101833368E-02   -1.9525274185330108E+01
C    1.1619116190851017E+01    5.3591362299394707E-01   -2.0378634288157922E+01
C    1.2160228504227902E+01    1.7311226569425520E+00   -2.1247471056099375E+01
C    1.0993500342609734E+01    2.2689092538175588E+00   -2.2159368858800537E+01
C    1.1485831502525928E+01    2.9028680700594296E+00   -2.3510539571431281E+01
C    1.0233937029447656E+01    3.1425792086102717E+00   -2.4426486806922135E+01
C    1.0584141755772478E+01    3.7595491497409879E+00   -2.5823950741368055E+01
C    9.2685249296181986E+00    3.8357278808358610E+00   -2.6675387410822150E+01
C    9.4763932593765308E+00    4.5448848023219499E+00   -2.8055617288916718E+01
C    8.0999364577902231E+00    4.6103732103323898E+00   -2.8803686688729595E+01
C    8.2216813973573153E+00    5.3946380132587013E+00   -3.0149982610606145E+01
C    6.8166079119572851E+00    5.5118277614868134E+00   -3.0829774824654681E+01
C    6.8759326482826717E+00    6.3533065152974135E+00   -3.2152281686360297E+01
C    1.3147663992385644E+01   -1.2502031823903914E+00   -1.7506157667139092E+01
C    1.0598962268794505E+01   -3.7901273195325453E+00   -2.1630831225714843E+01
C    1.0234869612202637E+01   -5.1168337662928911E+00   -2.2106287205253548E+01
O    1.1765748957757598E+01   -3.2101348960066529E+00   -2.2191719140252211E+01
C    1.1311501873556798E+01   -2.4600777078365539E+00   -2.3405738240671521E+01
C    1.2653810718942063E+01   -2.0528344918783019E+00   -2.4151264550610197E+01
O    1.3426048110430740E+01   -1.0438803776294232E+00   -2.3339752071571024E+01
C    1.4379824319153444E+01   -1.9717331656978727E+00   -2.2615765244996130E+01
C    1.5279308729560801E+01   -9.6764238276625569E-01   -2.1800918142823683E+01
C    1.6140696362542219E+01   -1.6588396430423331E+00   -2.0683742882808485E+01
C    1.6458493448157586E+01   -6.6292602129654288E-01   -1.9511294244591280E+01
C    1.7067881985705977E+01   -1.4408791456453571E+00   -1.8294612135344540E+01
C    1.7276841057485562E+01   -5.0058812611869941E-01   -1.7055528948398401E+01
C    1.7542743473451665E+01   -1.3672547845084120E+00   -1.5776151408688206E+01
C    1.8066482996794697E+01   -5.0000137677145506E-01   -1.4580106363214568E+01
C    1.8401081173576127E+01   -1.4404607355997452E+00   -1.3369824846144088E+01
C    1.9320925346862140E+01   -7.2073425895864096E-01   -1.2328293118492400E+01
C    1.9669712188344846E+01   -1.7048651220023330E+00   -1.1162082499059659E+01
C    2.0703680353847137E+01   -1.0843973978362149E+00   -1.0156992140495888E+01
C    1.2193215987732870E+01   -1.2648100377522151E+00   -2.5440326584163795E+01
C    1.0916819913787652E+01   -9.8360597955876514E+00   -2.1037067631508457E+01
C    1.0876405044291539E+01   -1.0590347032907193E+01   -1.9825761933961392E+01
C    1.2001944801685424E+01   -1.1048125965690881E+01   -1.9063531088421417E+01
C    1.3255244168420464E+01   -1.0727840384106470E+01   -1.9725192551808512E+01
C    1.3310460233885880E+01   -1.0131979274399635E+01   -2.1093097500684515E+01
C    1.2122251509143343E+01   -9.6358998644208427E+00   -2.1783419133103230E+01
O    1.4549708307546453E+01   -9.8226931480133022E+00   -2.1721727969617699E+01
C    1.5027482097596851E+01   -1.1124571184475494E+01   -2.2302878592719001E+01
C    1.6449108354933376E+01   -1.0782496954819981E+01   -2.2919778887665871E+01
O    1.7461790873069440E+01   -1.0624315008187018E+01   -2.1815787904980692E+01
C    1.7519818374923563E+01   -9.1173866278494256E+00   -2.1719140918909360E+01
C    1.8700270726427981E+01   -8.8491051496073645E+00   -2.0710297401189116E+01
C    1.8731277372473606E+01   -7.3551895873384003E+00   -2.0237569224205181E+01
C    1.9954665526985995E+01   -7.0512281978622866E+00   -1.9299193536578990E+01
C    1.9798446397104541E+01   -5.6090267036647203E+00   -1.8699687989976443E+01
C    2.1014819301778306E+01   -5.1668615944118761E+00   -1.7810931515516963E+01
C    2.0783293915956424E+01   -3.6887781699125881E+00   -1.7332429766187754E+01
C    2.1917134100717472E+01   -3.1708879781357937E+00   -1.6378110470082088E+01
C    2.1690853100324240E+01   -1.6398244140765896E+00   -1.6105473091633424E+01
C    2.2737389314870118E+01   -1.0738195554430752E+00   -1.5083456096053673E+01
C    2.2582379579213210E+01    4.7999670339016148E-01   -1.4949775372613662E+01
C    2.3591498357781944E+01    1.0781711104847009E+00   -1.3902963222653536E+01
C    1.6915351113922554E+01   -1.2062518242031578E+01   -2.3716066960517075E+01
O    1.4426332783808009E+01   -1.1041451996896331E+01   -1.8977498894866812E+01
C    1.4839803011821068E+01   -9.6908165646470703E+00   -1.8450821826919420E+01
C    1.5952859638794315E+01   -9.9640125275013567E+00   -1.7347880187332368E+01
O    1.7296815119991024E+01   -1.0415368133053599E+01   -1.7852962976084683E+01
C    1.6962360509013443E+01   -1.1799780514749205E+01   -1.8354188691574986E+01
C    1.8327150403676672E+01   -1.2562310727341785E+01   -1.8505670701121772E+01
C    1.8088311620008231E+01   -1.4035022358041211E+01   -1.9024536949096316E+01
C    1.8981579248377159E+01   -1.4407085939226878E+01   -2.0261612043861039E+01
C    1.8441574279512825E+01   -1.5728068066104932E+01   -2.0913318214314600E+01
C    1.9351096096768323E+01   -1.6219138726321887E+01   -2.2091623365864994E+01
C    1.8676740315930534E+01   -1.7444523906770254E+01   -2.2801706825456279E+01
C    1.9611444161537623E+01   -1.8071248305379086E+01   -2.3891266356593707E+01
C    1.8887853507502005E+01   -1.9281565412269117E+01   -2.4576669959522615E+01
C    1.9834780164401916E+01   -1.9980385162038893E+01   -2.5608175750649888E+01
C    1.9110149840305489E+01   -2.1194168681647344E+01   -2.6279533197102761E+01
C    2.0064527464739509E+01   -2.1967605108250144E+01   -2.7250768469861239E+01
C    1.6280812968349540E+01   -8.5745908742320349E+00   -1.6671092297438737E+01
N    6.8646708322083239E+00   -1.0369114773186169E+01   -1.8372656906250096E+01
O    8.3873979044773623E+00   -1.2481853432182261E+01   -1.2947478578624736E+01
C    9.3743987032754728E+00   -1.3605286228914069E+01   -1.3081925025180841E+01
C    1.0387166324320557E+01   -1.3340303602918802E+01   -1.1880371003794076E+01
O    9.6435925440042212E+00   -1.3330142942886171E+01   -1.0574230146150184E+01
C    9.5936016697135020E+00   -1.1843615772000030E+01   -1.0294482390572895E+01
C    8.7089617666693790E+00   -1.1780519803475197E+01   -8.9932676727511609E+00
C    8.2795235922314312E+00   -1.0333905796624583E+01   -8.5637043627114178E+00
C    7.4031521870972634E+00   -1.0400890360480142E+01   -7.2581166307248299E+00
C    6.7124569125329518E+00   -9.0230574478326204E+00   -6.9479242423002630E+00
C    5.7901646246167306E+00   -9.1513925440982771E+00   -5.6814137282940802E+00
C    4.9734821894330556E+00   -7.8369178834214503E+00   -5.4253082879187096E+00
C    4.0649485207284473E+00   -7.9732430591628427E+00   -4.1519953555298912E+00
C    3.2118227168557478E+00   -6.6724349003300167E+00   -3.9515329536896990E+00
C    2.3899783995956900E+00   -6.7347937926562365E+00   -2.6202930272095433E+00
C    1.4864773909905404E+00   -5.4639798670329913E+00   -2.4690979891506437E+00
C    8.2567525618932380E-01   -5.4102494372476011E+00   -1.0473539456868113E+00
C    1.1340970791834867E+01   -1.4601489689086916E+01   -1.1825565245270973E+01
O    4.3793751015828306E+00   -8.4568413717488706E+00   -2.0683006534586681E+01
O    5.0765514295005678E+00   -1.0943975531855914E+01   -2.0420037174975693E+01
O    6.2453184508007089E+00   -8.3117501777198957E+00   -2.2399841387421890E+01
O    7.1879003480896495E+00   -1.0768953326837842E+01   -2.1833045225106783E+01
C   -4.3649594402305147E-01   -5.9009213227926889E+00   -1.2632556546831358E+01
H    4.7275641072650160E-01    1.3534963458380402E+00    3.4326833283874634E+00
H    1.9098938082501455E+00    1.6083107504269976E+00    2.1676644234795983E+00
H    3.7838023473266374E-01    2.7910522749800903E+00    2.1700817218798529E+00
H   -9.3458561400362863E-02   -3.3184761012764025E-01    1.8450078393037013E+00
H   -1.0474292325041035E+00    1.2116029495743057E+00    1.0867935087241429E+00
H    8.4234687635767103E-01    1.6130612169847980E+00   -5.1963732690935582E-01
H    1.8385251677615930E+00    1.0026043297093599E-01    2.7014844786165859E-01
H   -6.1009050472404555E-02   -1.4720048551593581E+00   -4.4351103447443557E-01
H   -9.4738108185917225E-01    5.6986482741393896E-02   -1.3261364343148929E+00
H    1.0954052475271090E+00    3.9960744430389689E-01   -2.7840385382540114E+00
H    1.9798710805205624E+00   -1.1244013910225781E+00   -1.9029011821146540E+00
H    1.6343262640510761E-01   -2.6769773014897278E+00   -2.7699256061348714E+00
H   -6.8353812577261863E-01   -1.1381244857628852E+00   -3.6843584275188004E+00
H    1.3937032748683895E+00   -8.0051370257682697E-01   -5.0690443116774500E+00
H    2.2727554071811435E+00   -2.2993099412880329E+00   -4.1329334057334970E+00
H    4.7299702243023567E-01   -3.8760603280336201E+00   -4.9924415735405647E+00
H   -3.3625467363037770E-01   -2.3693571482413351E+00   -5.9864276736531572E+00
H    1.6365048366397514E+00   -2.1570001722147736E+00   -7.4476593005167766E+00
H    2.6537758386895325E+00   -3.4425636370243251E+00   -6.3456375267008358E+00
H    1.2781681274536940E+00   -5.3146116196147677E+00   -7.0718041745216143E+00
H   -9.7459923680752639E-02   -4.1180104913342053E+00   -7.8408750444129103E+00
H    1.5700188606157832E+00   -3.3954201594053988E+00   -9.6272510207604398E+00
H    2.8944568941837203E+00   -4.6426071561785456E+00   -8.8787249653008029E+00
H    1.5854100921125955E+00   -6.5784977502745203E+00   -9.5654935094181859E+00
H   -1.7617488103650682E-02   -5.4984704845402685E+00   -9.9054395198623517E+00
H    1.0663410583048574E+00   -7.3741272491040979E+00   -1.1836104458746172E+01
H    1.4176603400966552E+00   -6.8926182001453427E+00   -1.4389828634919111E+01
H    1.9001314975751511E+00   -5.0549536946386047E+00   -1.3933535307642305E+01
H    3.2897020410663287E+00   -8.6844492609382211E+00   -1.5178922189825697E+01
H    6.1376843301196464E+00   -4.2307309504302504E+00   -1.6380910369611549E+01
H    5.5393151339484570E+00   -5.5626177097516747E+00   -1.2160637546340315E+01
H    6.9514914875168321E+00   -5.1916335525166719E+00   -1.3484219955522255E+01
H    7.0097175068247104E+00   -2.7494941168314644E+00   -1.2825485465303856E+01
H    5.3281697260389134E+00   -8.7319543017762868E-01   -1.2048233326130072E+01
H    4.6611460346400451E+00   -2.2084355830459170E+00   -1.3343965841354406E+01
H    2.9126253132880957E+00   -2.7209313540467002E+00   -1.1258273812873025E+01
H    3.3311684050785098E+00   -8.5343366667782350E-01   -1.0780169452584886E+01
H    2.6340172909365802E+00   -7.8049390044868661E-02   -1.3065772312135232E+01
H    2.2994294431143425E+00   -1.9547842471262846E+00   -1.3618234062947501E+01
H    5.4783808589584848E-01   -2.0810589841396712E+00   -1.1680116477263619E+01
H    7.6706515674571163E-01   -1.2902772974340643E-01   -1.1472456635585740E+01
H    1.2000873244674437E-01    1.8372661041091604E-01   -1.3924185357765504E+01
H   -1.7395733442328162E-01   -1.7613068618741687E+00   -1.4069272972601384E+01
H   -1.9434309394512201E+00   -1.6213620692703614E+00   -1.2257172909884369E+01
H   -1.6569606225722775E+00    3.2351885395416191E-01   -1.2139351239528807E+01
H   -2.3793344760990043E+00    5.7257087436586451E-01   -1.4559594806303576E+01
H   -2.6900776504406720E+00   -1.3718449901309111E+00   -1.4658568280689648E+01
H   -4.4322057133267556E+00   -1.2176136767086105E+00   -1.2867178284825005E+01
H   -4.0694571846836238E+00    7.0613425221466741E-01   -1.2642549460571505E+01
H   -4.8006512026572166E+00    1.0989900480473833E+00   -1.5055139162435180E+01
H   -5.2363249704267840E+00   -8.2074502090663637E-01   -1.5211395564014852E+01
H   -6.9546878225795101E+00   -6.1329023453746812E-01   -1.3404192749380533E+01
H   -6.4637017572267510E+00    1.2740273080255424E+00   -1.3115922571859343E+01
H   -7.1497792815412557E+00    1.7823135003494044E+00   -1.5499505453224195E+01
H   -7.6990516998462315E+00   -7.4688418354917338E-02   -1.5731649966139459E+01
H   -8.9175266356346796E+00    1.1487612992522571E+00   -1.3194394641134757E+01
H   -9.3126883835223069E+00    2.2282255402000208E+00   -1.4751595944677605E+01
H   -9.8147074738546571E+00    3.6904175956533497E-01   -1.4735724511486920E+01
H    7.5289978851405195E+00   -5.1895796650512116E+00   -1.0917438238132855E+01
H    8.5699512350483680E+00   -3.5750718604755733E+00   -1.1203342862053120E+01
H    7.1257200097042404E+00   -3.5808116067316398E+00   -9.9447930301527112E+00
H    4.2894541204364636E+00   -1.1290456882650716E+01   -1.5049485044308936E+01
H    6.6648012550352940E+00   -1.1315541854841085E+01   -1.1615274311252223E+01
H    4.9363696636536654E+00   -1.0664983425171403E+01   -1.2287760124940698E+01
H    3.8859146995809408E+00   -1.2843827487367451E+01   -1.1198479032307594E+01
H    4.8465245407341637E+00   -1.5034923619821553E+01   -1.0831952568585084E+01
H    6.4067628585644645E+00   -1.4249470374254098E+01   -1.1754635670992606E+01
H    7.7909158024145935E+00   -1.4739731698821544E+01   -9.5904381111265167E+00
H    6.2353355211350880E+00   -1.5772063642823316E+01   -8.9301812183449272E+00
H    6.3991371544952766E+00   -1.7383367970669703E+01   -1.0762135798252139E+01
H    7.6757553999980015E+00   -1.6244794963670397E+01   -1.1748838985218013E+01
H    9.3521013640305206E+00   -1.6618965147332073E+01   -9.7808306961807467E+00
H    8.0968237286597375E+00   -1.7973969137325192E+01   -9.0843282233629186E+00
H    8.2441134084004233E+00   -1.9264731873496498E+01   -1.1229961289908745E+01
H    9.4145930340614719E+00   -1.7884834543313442E+01   -1.2004104317494035E+01
H    1.1157019614884373E+01   -1.8400253347920561E+01   -1.0205800660682852E+01
H    9.9945030754861488E+00   -1.9843671600002452E+01   -9.5330766391538457E+00
H    1.0075762379209030E+01   -2.0954418084158771E+01   -1.1823560657835257E+01
H    1.1283305007645401E+01   -1.9531570563292043E+01   -1.2454541887783561E+01
H    1.3004737383148822E+01   -2.0214079091024978E+01   -1.0742899979544788E+01
H    1.1791139874693661E+01   -2.1616515432747438E+01   -1.0069897056768399E+01
H    1.1805655749326565E+01   -2.2695659319472664E+01   -1.2392544315246079E+01
H    1.3106393606496061E+01   -2.1333838430701071E+01   -1.2986661140910213E+01
H    1.4758288112807602E+01   -2.2129821648777487E+01   -1.1264378953646816E+01
H    1.3451071418363350E+01   -2.3454134744383623E+01   -1.0602925926103710E+01
H    1.3440007949625683E+01   -2.4545087282224664E+01   -1.2897219565199293E+01
H    1.4810774159572505E+01   -2.3273831579008814E+01   -1.3491413378475887E+01
H    1.5433016697430883E+01   -2.4772376971013955E+01   -1.0819888269301027E+01
H    1.5293522718000403E+01   -2.5898131144633197E+01   -1.2385453091859555E+01
H    1.6527258774259039E+01   -2.4431635308869627E+01   -1.2377377036103493E+01
H    4.5799459387559791E+00   -1.1600561643787962E+01   -8.6356089053525977E+00
H    5.0867418541801150E+00   -1.0200312153029373E+01   -9.8569229195788086E+00
H    3.2707920022497197E+00   -1.0906139661109762E+01   -9.8595876732894716E+00
H    9.6026294051474821E+00   -1.2228973632425195E+01   -1.5693120374480063E+01
H    8.0141261707652323E+00   -3.1494601794058643E+00   -1.9069986342104350E+01
H    1.1208995496711687E+01   -2.9610822507822099E+00   -1.8298076633713354E+01
H    1.2366071461437690E+01   -2.6961818600585676E+00   -1.9857451351070797E+01
H    1.1078035615342413E+01   -3.9792248138496727E-01   -1.8008252419728585E+01
H    1.1305574056740440E+01   -3.1107755514099206E-01   -2.1153683541194383E+01
H    1.0681057585010686E+01    9.4725647033901417E-01   -1.9766334186593671E+01
H    1.2472616867902785E+01    2.6033728994778729E+00   -2.0518545857557612E+01
H    1.3026222916955287E+01    1.3391228639597073E+00   -2.1941373863942989E+01
H    1.0293712511211719E+01    1.3674062866223562E+00   -2.2441108957366094E+01
H    1.0430253106836613E+01    3.1254766577537514E+00   -2.1577940514710580E+01
H    1.1980069915624336E+01    3.9505833224321312E+00   -2.3292419022146266E+01
H    1.2198998978752490E+01    2.1386488430968842E+00   -2.4051598122291942E+01
H    9.7289229025965973E+00    2.0982420467932021E+00   -2.4624352077151464E+01
H    9.5207126398960575E+00    3.9036865789501229E+00   -2.3879796095513662E+01
H    1.0983882338317899E+01    4.8560245847355583E+00   -2.5666980163038851E+01
H    1.1341387025071462E+01    3.0466170055998787E+00   -2.6376414950487014E+01
H    8.9157326962967236E+00    2.7343054104746090E+00   -2.6894746491550958E+01
H    8.4791221310251057E+00    4.4651091620869288E+00   -2.6070167883221423E+01
H    9.8414349865678545E+00    5.6470862357336760E+00   -2.7861324297225071E+01
H    1.0217771587754216E+01    3.9004418401929466E+00   -2.8704653727984265E+01
H    7.7674976838913619E+00    3.5112503981801058E+00   -2.9063106925139593E+01
H    7.3344354882582774E+00    5.1874722194317657E+00   -2.8121161188285971E+01
H    8.5851800539317651E+00    6.4902290202704638E+00   -2.9922298945121049E+01
H    8.9188118153134361E+00    4.7954721119964336E+00   -3.0884859689938462E+01
H    6.4492201965555633E+00    4.4273881980375354E+00   -3.1108819700493104E+01
H    6.0897764269421586E+00    6.0581378335221263E+00   -3.0081168633052123E+01
H    6.8984178357257546E+00    5.6282559149478812E+00   -3.3083042716067389E+01
H    5.9030392640168712E+00    7.0214952973235869E+00   -3.2219849211449812E+01
H    7.8352243868478890E+00    7.0386970692604622E+00   -3.2143993381503876E+01
H    1.2743522536297807E+01   -1.1218836581003695E+00   -1.6402418456783554E+01
H    1.3560928156438766E+01   -2.3439790970252155E+00   -1.7662425074926361E+01
H    1.4036298301710401E+01   -4.8368072312053867E-01   -1.7665869410795114E+01
H    1.0774964828928866E+01   -5.7457166151515855E+00   -2.2944038986907795E+01
H    1.0608935349602719E+01   -3.1281580436807142E+00   -2.4109218920297966E+01
H    1.0728508121314315E+01   -1.4747150232894441E+00   -2.3063617535607364E+01
H    1.3133906630323473E+01   -3.0981947994758601E+00   -2.4463597431277421E+01
H    1.3847176984300342E+01   -2.6804181962651494E+00   -2.1817498483943790E+01
H    1.5117679234552662E+01   -2.6000926442467955E+00   -2.3319136347496134E+01
H    1.6021290491415780E+01   -4.5761027362616757E-01   -2.2561913490615055E+01
H    1.4548443792326681E+01   -2.0568370789576754E-01   -2.1279278388203846E+01
H    1.5522879722159439E+01   -2.5525921396960451E+00   -2.0237453487969816E+01
H    1.7169604545176359E+01   -1.9841982306838850E+00   -2.1157131807630918E+01
H    1.7265903551073858E+01    1.1076138093570756E-01   -1.9884517255658576E+01
H    1.5449523696160357E+01   -1.7088007675320810E-01   -1.9163665235569560E+01
H    1.6310655056713568E+01   -2.2849923019276250E+00   -1.7984002214768829E+01
H    1.8127871531951808E+01   -1.8511072192124225E+00   -1.8606445950066096E+01
H    1.8229748539316706E+01    1.6532416152601184E-01   -1.7244836380349660E+01
H    1.6290834326465752E+01    1.2171220565127837E-01   -1.6893869782877349E+01
H    1.6512677966072513E+01   -1.8368286387410422E+00   -1.5452194887798250E+01
H    1.8372826734799951E+01   -2.1581540203784901E+00   -1.6036558357585939E+01
H    1.9055020528958291E+01    4.2089263306784835E-02   -1.4914934381835092E+01
H    1.7206515364661069E+01    2.3090123361585263E-01   -1.4240525016414825E+01
H    1.7397687780953298E+01   -1.7196119775895224E+00   -1.2819279168555449E+01
H    1.8991444174780916E+01   -2.3723050519789006E+00   -1.3777618537262846E+01
H    2.0330213306305644E+01   -4.1794934090435976E-01   -1.2851110331985847E+01
H    1.8731199557047617E+01    1.7968094849683555E-01   -1.1850687590347569E+01
H    1.8682434196819983E+01   -1.9390171208484974E+00   -1.0564077976966304E+01
H    2.0155058929826879E+01   -2.6712467983774224E+00   -1.1628144981948445E+01
H    2.0349268693164404E+01   -1.3121922829866646E+00   -9.0525108147071531E+00
H    2.1759122393171054E+01   -1.5879248707435558E+00   -1.0317398622869122E+01
H    2.0775674375488709E+01    8.0443192746279632E-02   -1.0322076031986461E+01
H    1.1968505789101581E+01   -1.9757360231712264E+00   -2.6356190135490785E+01
H    1.1273542728301871E+01   -5.5584094009408236E-01   -2.5224034791681742E+01
H    1.3124080878594434E+01   -5.8219285695923773E-01   -2.5711996538319049E+01
H    1.1865668287285258E+01   -1.1604806319856769E+01   -1.8030625842075711E+01
H    1.2083873267478200E+01   -9.1210510985603808E+00   -2.2842557272699697E+01
H    1.5155103597754479E+01   -1.1958983104201826E+01   -2.1459448334083223E+01
H    1.4270999374229952E+01   -1.1494504185255758E+01   -2.3153680302214287E+01
H    1.6225330227465122E+01   -9.9015680144602900E+00   -2.3690707347678870E+01
H    1.7812818369556840E+01   -8.5598392826514917E+00   -2.2735981468520773E+01
H    1.6534564158595874E+01   -8.6447372819331481E+00   -2.1240213962202382E+01
H    1.8509996778681217E+01   -9.5295490640099487E+00   -1.9766452886187434E+01