 # Version information for this restart file 
 # current date 2023-03-26 17:06:50.920
 # current working dir /mnt/scratch2/users/40265864/MSc_ML_MM/ln_replacements/xyz/Gd_L6_O_O_O_O/geometry_optimisation/run-6
 # Program compiled at                              Mon 24 Oct 18:14:20 BST 2022
 # Program compiled on                          login1.pri.kelvin2.alces.network
 # Program compiled for                                                    local
 # Source code revision number                                         svn:17462
 &GLOBAL
   PRINT_LEVEL  LOW
   PROJECT_NAME molecule_name
   RUN_TYPE  GEO_OPT
 &END GLOBAL
 &MOTION
   &GEO_OPT
     OPTIMIZER  BFGS
     MAX_DR     5.0000000000000000E-01
     MAX_FORCE     5.0000000000000000E-01
     RMS_DR     5.0000000000000003E-02
     RMS_FORCE     5.0000000000000003E-02
     STEP_START_VAL  3
   &END GEO_OPT
 &END MOTION
 &FORCE_EVAL
   METHOD  QS
   &DFT
     BASIS_SET_FILE_NAME ../BASIS_MOLOPT_UCL
     BASIS_SET_FILE_NAME BASIS_SET
     POTENTIAL_FILE_NAME ../POTENTIAL
     UKS  T
     MULTIPLICITY  6
     CHARGE  3
     &SCF
       MAX_SCF  50
       EPS_SCF     5.0000000000000002E-05
       SCF_GUESS  RESTART
       &OT  T
         MINIMIZER  DIIS
         PRECONDITIONER  FULL_KINETIC
       &END OT
       &OUTER_SCF  T
         EPS_SCF     5.0000000000000002E-05
         MAX_SCF  20
       &END OUTER_SCF
     &END SCF
     &MGRID
       NGRIDS  2
       CUTOFF     4.0000000000000000E+02
       REL_CUTOFF     5.0000000000000000E+01
     &END MGRID
     &XC
       DENSITY_CUTOFF     1.0000000000000000E-10
       GRADIENT_CUTOFF     1.0000000000000000E-10
       TAU_CUTOFF     1.0000000000000000E-10
       &XC_FUNCTIONAL  NO_SHORTCUT
         &PBE  T
         &END PBE
       &END XC_FUNCTIONAL
     &END XC
   &END DFT
   &SUBSYS
     &CELL
       A     3.6000000000000000E+01    0.0000000000000000E+00    0.0000000000000000E+00
       B     0.0000000000000000E+00    3.4000000000000000E+01    0.0000000000000000E+00
       C     0.0000000000000000E+00    0.0000000000000000E+00    3.8000000000000007E+01
       PERIODIC  NONE
       MULTIPLE_UNIT_CELL  1 1 1
     &END CELL
     &COORD
C    7.4340529273519229E-01    1.6898935343828292E+00    2.3466866307618783E+00
C   -1.3556541123908361E-02    7.1895873249135767E-01    1.3388971912088972E+00
C    7.8816129341610386E-01    5.5869968694631889E-01   -6.3807585300046273E-03
C    7.1040777237239269E-02   -4.3427032114592179E-01   -9.9321802166751871E-01
C    9.6837195257310571E-01   -6.5291930726837499E-01   -2.2649716439393437E+00
C    3.1379776353172945E-01   -1.6431175951172099E+00   -3.2957640819714622E+00
C    1.2700406551063894E+00   -1.8468426681742063E+00   -4.5279274966218397E+00
C    6.3761500702598994E-01   -2.8608881672055864E+00   -5.5459127838590465E+00
C    1.5966834928248546E+00   -3.1290396101051643E+00   -6.7608309901849379E+00
C    1.0591394334111810E+00   -4.3068594916026584E+00   -7.6534349448512460E+00
C    1.7717290414705915E+00   -4.3722542817362289E+00   -9.0487229293255087E+00
C    1.1736046485573179E+00   -5.5241209167592631E+00   -9.9409381294117320E+00
O    1.7255575254470932E+00   -5.2115246866429210E+00   -1.1355702038245443E+01
C    1.0091424855890210E+00   -6.2643222713050717E+00   -1.2245187014631350E+01
C    1.8712100071049316E+00   -6.1953923181759638E+00   -1.3554331973456945E+01
O    3.3064914214055574E+00   -6.5883239910206655E+00   -1.3101162016832232E+01
C    4.0541064674863962E+00   -6.5764457394638125E+00   -1.4372051138709420E+01
C    3.8089703983466805E+00   -7.7017898625482424E+00   -1.5315664704569492E+01
C    4.4155520493588662E+00   -7.4543599464726835E+00   -1.6623899781255080E+01
C    5.2597873831989332E+00   -6.2767647081013571E+00   -1.6872381447600546E+01
C    5.4694264997613828E+00   -5.1259451868428298E+00   -1.6015582817611183E+01
C    4.7183457820664731E+00   -5.2566761953439718E+00   -1.4762640397651394E+01
O    4.8682856949823741E+00   -4.1923122027230848E+00   -1.3760053730899063E+01
C    6.0005469637492821E+00   -4.7442056502369292E+00   -1.2859560956600291E+01
C    6.5304873140270168E+00   -3.5076742426918144E+00   -1.2028214862613725E+01
O    5.3183194665981244E+00   -2.9423335885160040E+00   -1.1246437205122470E+01
C    4.6996801477226313E+00   -1.8579642638808445E+00   -1.2175093174532959E+01
C    3.2431288774846050E+00   -1.6611842999153499E+00   -1.1609034246541780E+01
C    2.2814505578683186E+00   -1.1581129428180574E+00   -1.2737208564329462E+01
C    8.1197562035583415E-01   -1.0528461164013725E+00   -1.2206126685606202E+01
C   -1.9604851407819740E-01   -8.1294054559194207E-01   -1.3379083234817008E+01
C   -1.6482734998587021E+00   -6.3470447521205853E-01   -1.2821405916548233E+01
C   -2.6801547149100302E+00   -4.0957295105816044E-01   -1.3981573375749456E+01
C   -4.1191841644862128E+00   -2.0811949278485262E-01   -1.3384734961793601E+01
C   -5.1716589845086522E+00    1.2180839733413844E-01   -1.4506473592128854E+01
C   -6.5959435025934736E+00    3.8843460504674598E-01   -1.3881262845793554E+01
C   -7.6672003172486489E+00    8.0646569780457122E-01   -1.4976282237353679E+01
C   -9.1386989969210273E+00    1.1399128331726884E+00   -1.4355432824483088E+01
C    7.5640889712348347E+00   -4.0173230538142013E+00   -1.0940459796915686E+01
C    6.0050666544517677E+00   -6.5289782144955515E+00   -1.8135410559419736E+01
N    6.7356113342042390E+00   -5.4196793890085528E+00   -1.8677523961773574E+01
C    7.4712295559611670E+00   -5.8902481138453782E+00   -1.9823459870166371E+01
N    7.6914727841882655E+00   -7.2247624412531284E+00   -2.0351492511825899E+01
Gd    6.5016555801114819E+00   -9.2275832920749128E+00   -2.0365169481510392E+01
N    5.7760120328702405E+00   -7.8939645351331693E+00   -1.8601237340391389E+01
C    4.7852816018551083E+00   -8.4498301105762952E+00   -1.7703431552311084E+01
N    4.4738128214395658E+00   -9.8365749074766704E+00   -1.7378666523731596E+01
C    5.7000342026790696E+00   -1.0599896538378667E+01   -1.7551688515657151E+01
C    6.0834419025859896E+00   -1.1377541993931992E+01   -1.6322848201181191E+01
C    5.3415903584653179E+00   -1.1515173026743311E+01   -1.5081106736035013E+01
C    6.1890988582627644E+00   -1.2172404230184890E+01   -1.4080158168656062E+01
O    5.5163128695248336E+00   -1.2752250489402304E+01   -1.2918698396855312E+01
C    5.5630736313698605E+00   -1.1625179112192409E+01   -1.1872220914640785E+01
C    4.8008047743011781E+00   -1.2271601976393162E+01   -1.0651197900409153E+01
O    5.7340390377013124E+00   -1.3193277406674625E+01   -9.8558147392504658E+00
C    5.9107205545534418E+00   -1.4477245140200527E+01   -1.0707840855908428E+01
C    6.8641015830434542E+00   -1.5383838625295731E+01   -9.8435824485167593E+00
C    7.3150971443440742E+00   -1.6625710011734547E+01   -1.0689111980683702E+01
C    8.5117422463921351E+00   -1.7403602724280351E+01   -1.0037384422499350E+01
C    9.0855538733411105E+00   -1.8461828841260438E+01   -1.1039797918663181E+01
C    1.0338089960516129E+01   -1.9202116441931185E+01   -1.0457286272439575E+01
C    1.0914821537306926E+01   -2.0177025567890535E+01   -1.1544018888807475E+01
C    1.2145983487829623E+01   -2.0977728772837843E+01   -1.0993993923735125E+01
C    1.2684214456407576E+01   -2.1966340664669456E+01   -1.2087670155752146E+01
C    1.3859207025579394E+01   -2.2838294953327956E+01   -1.1520430425287413E+01
C    1.4349469457436390E+01   -2.3874354695262074E+01   -1.2598042692074849E+01
C    1.5488757302805627E+01   -2.4814559120180178E+01   -1.2000859159870485E+01
C    4.3842096435302524E+00   -1.1116519857324370E+01   -9.6526798385439161E+00
C    7.7062811071821109E+00   -1.2237222671248437E+01   -1.4109466233557047E+01
C    8.4416407479170772E+00   -1.2105188851522396E+01   -1.5393632554729180E+01
C    7.5146024552714730E+00   -1.1673085882640390E+01   -1.6436922409629112E+01
C    7.9452501174301533E+00   -1.1116364333345835E+01   -1.7757549166283905E+01
N    9.3184426489954202E+00   -1.1281214857779357E+01   -1.8121638499613677E+01
C    9.5483798325671732E+00   -1.0548913196017235E+01   -1.9341492058872685E+01
N    8.7707593350392354E+00   -9.5993408767379940E+00   -2.0105402792444419E+01
C    9.6215485429691032E+00   -9.2162088479081525E+00   -2.1240447759453772E+01
N    9.5504326006577021E+00   -8.0236066821822565E+00   -2.2068016300073971E+01
C    8.6774606367690179E+00   -7.0466367237238412E+00   -2.1435259939308757E+01
C    9.0522906488322423E+00   -5.5924930457219348E+00   -2.1572970396753469E+01
C    8.3340947469632720E+00   -4.8821968526989927E+00   -2.0512206816562863E+01
C    8.6495428627764834E+00   -3.5902514870415057E+00   -1.9929921684397609E+01
C    9.8355301671915853E+00   -3.0040990615828975E+00   -2.0566668530640211E+01
O    1.0318173418140448E+01   -1.7329242406715479E+00   -2.0010986459891491E+01
C    1.1557705496522422E+01   -2.1787196876394197E+00   -1.9188981578172033E+01
C    1.2092658527382490E+01   -8.5811517389535497E-01   -1.8496988769075244E+01
O    1.2784147831663043E+01    7.8864942645855474E-02   -1.9510255411695574E+01
C    1.1633683713670640E+01    5.5530310769996338E-01   -2.0437196111385937E+01
C    1.2187727230003999E+01    1.7618669155845754E+00   -2.1272785576209618E+01
C    1.1004987888482360E+01    2.2847328312867510E+00   -2.2170277705321098E+01
C    1.1478143702252556E+01    2.9066936886575405E+00   -2.3529823665734224E+01
C    1.0225708005725267E+01    3.1449967123014484E+00   -2.4438565274155813E+01
C    1.0586259708916941E+01    3.7623062081035998E+00   -2.5832025394234769E+01
C    9.2664979431553629E+00    3.8340201486170695E+00   -2.6677635841606630E+01
C    9.4772874724766130E+00    4.5447267629747374E+00   -2.8057634301922274E+01
C    8.1019080413670288E+00    4.6106205291644109E+00   -2.8811039372119438E+01
C    8.2180181124258240E+00    5.3967838964925861E+00   -3.0161560389573161E+01
C    6.7991844612254067E+00    5.5100922975547348E+00   -3.0833833858073731E+01
C    6.8647863616435369E+00    6.3637373920115570E+00   -3.2174781685639708E+01
C    1.3209213078874349E+01   -1.2481921325799725E+00   -1.7439715065552132E+01
C    1.0678916025374825E+01   -3.7818062218033295E+00   -2.1574488629161774E+01
C    1.0277753834016366E+01   -5.0743442750429235E+00   -2.2175670348051327E+01
O    1.1860436323308168E+01   -3.1351373708936161E+00   -2.2139078123299100E+01
C    1.1331349802918853E+01   -2.4152066595900687E+00   -2.3404724787225092E+01
C    1.2628777228563234E+01   -2.0352220766499216E+00   -2.4219212196606293E+01
O    1.3448397434217201E+01   -1.0472081992369364E+00   -2.3372692336549449E+01
C    1.4412862339575423E+01   -1.9641287303112964E+00   -2.2584849734390492E+01
C    1.5291588151024527E+01   -9.3038120620847153E-01   -2.1788833513816414E+01
C    1.6143495687419875E+01   -1.6404459182345301E+00   -2.0680626777120988E+01
C    1.6464688792742862E+01   -6.7397694821511711E-01   -1.9489274689860412E+01
C    1.7072564135170403E+01   -1.4466998376666393E+00   -1.8275658399234018E+01
C    1.7277383575104320E+01   -4.9596621231242977E-01   -1.7047517117776216E+01
C    1.7549839418323742E+01   -1.3710822384469745E+00   -1.5775565678082881E+01
C    1.8076152679224172E+01   -5.0357056160897340E-01   -1.4581132256854520E+01
C    1.8412912260324596E+01   -1.4384099397820500E+00   -1.3367118572695141E+01
C    1.9336874273699657E+01   -7.2117041299169082E-01   -1.2322609036087988E+01
C    1.9673283167944181E+01   -1.7184025247554064E+00   -1.1151959564870339E+01
C    2.0720879851271768E+01   -1.0839608246626591E+00   -1.0134249798367993E+01
C    1.2186818657686960E+01   -1.2355014516713796E+00   -2.5512359409309379E+01
C    1.0936117852775284E+01   -9.9507965304748733E+00   -2.1174858258334140E+01
C    1.0920952761015364E+01   -1.0688933877065109E+01   -1.9911637699899941E+01
C    1.2045804996948794E+01   -1.1146023636136599E+01   -1.9112802566526103E+01
C    1.3318402479289258E+01   -1.0836217295597001E+01   -1.9772679040225182E+01
C    1.3373347101160713E+01   -1.0043931502635775E+01   -2.1079239300899648E+01
C    1.2184537364748083E+01   -9.6248801569865083E+00   -2.1856214971476849E+01
O    1.4683021349199334E+01   -9.7804189683246445E+00   -2.1685065461886875E+01
C    1.5065003061672980E+01   -1.1154090789587920E+01   -2.2304966152441807E+01
C    1.6456739839747105E+01   -1.0845310215893345E+01   -2.2973250854159698E+01
O    1.7476442241706181E+01   -1.0622661968698095E+01   -2.1841626034397418E+01
C    1.7531116392453395E+01   -9.0857891594128262E+00   -2.1685357804164902E+01
C    1.8717619355307377E+01   -8.8587385490540331E+00   -2.0677405623530024E+01
C    1.8745919027450004E+01   -7.3623306173777197E+00   -2.0221022689307041E+01
C    1.9959430149742857E+01   -7.0297578440107262E+00   -1.9285812120316820E+01
C    1.9796579908694671E+01   -5.5931640408109065E+00   -1.8687055077098329E+01
C    2.1017514723945734E+01   -5.1619373008401608E+00   -1.7803676520607745E+01
C    2.0775304292721515E+01   -3.6841371169143291E+00   -1.7329897316116558E+01
C    2.1905706764856923E+01   -3.1653645302725324E+00   -1.6371884889020656E+01
C    2.1682199319480382E+01   -1.6333376744365866E+00   -1.6092891691210728E+01
C    2.2737857733619222E+01   -1.0756855325702737E+00   -1.5070139357495687E+01
C    2.2634661270154627E+01    4.8791362263456362E-01   -1.4946952031291950E+01
C    2.3736564858271137E+01    1.0681792786264706E+00   -1.3928474821974023E+01
C    1.6956398583656991E+01   -1.2118787818700467E+01   -2.3760715067260485E+01
O    1.4540322764587216E+01   -1.1093251224193867E+01   -1.8999400645664281E+01
C    1.4905394452706014E+01   -9.6784868749429336E+00   -1.8476542782651510E+01
C    1.5954451346481939E+01   -9.9043298997994693E+00   -1.7304164337470720E+01
O    1.7300233124709425E+01   -1.0421431602946042E+01   -1.7847826967317470E+01
C    1.6998782273830845E+01   -1.1837246455157416E+01   -1.8398671707887459E+01
C    1.8381002355980446E+01   -1.2575723999773111E+01   -1.8504545255767443E+01
C    1.8106004361674209E+01   -1.4043514404185984E+01   -1.9019474975192832E+01
C    1.8971868519170911E+01   -1.4412468078736357E+01   -2.0276225180879969E+01
C    1.8439028764187267E+01   -1.5733990020635572E+01   -2.0924197656079414E+01
C    1.9354557484086676E+01   -1.6221041732726764E+01   -2.2098509508199495E+01
C    1.8674929204290510E+01   -1.7445232852941366E+01   -2.2804388010767159E+01
C    1.9612035967862102E+01   -1.8072432315998231E+01   -2.3893255702049792E+01
C    1.8892378913110381E+01   -1.9284631512274110E+01   -2.4581608937643104E+01
C    1.9838233182567024E+01   -1.9989778371550798E+01   -2.5615203544414854E+01
C    1.9099413228001040E+01   -2.1205709148310369E+01   -2.6286346951347589E+01
C    2.0068467852241884E+01   -2.1986074605727346E+01   -2.7266465220346692E+01
C    1.6295905796622705E+01   -8.5154037466980448E+00   -1.6615071022483530E+01
N    6.8349482431357238E+00   -1.0464375499834439E+01   -1.8444925893758437E+01
O    8.3287796187656937E+00   -1.2554459329105482E+01   -1.2832511890374942E+01
C    9.3925249528290582E+00   -1.3663127319132441E+01   -1.3034382882638448E+01
C    1.0455484016233019E+01   -1.3387029138060484E+01   -1.1897817055503930E+01
O    9.6573857222687529E+00   -1.3331380319208288E+01   -1.0584249356489524E+01
C    9.5793268066135209E+00   -1.1819561788107281E+01   -1.0268800125278204E+01
C    8.6820720280251162E+00   -1.1798215077347029E+01   -8.9768537918416058E+00
C    8.2628045497045584E+00   -1.0350212382538054E+01   -8.5553722851678753E+00
C    7.3878960816147412E+00   -1.0381595310926091E+01   -7.2532425497483271E+00
C    6.6966382254865575E+00   -9.0124518767530670E+00   -6.9422990031058971E+00
C    5.7823893799880066E+00   -9.1516599983764859E+00   -5.6748359609024304E+00
C    4.9700071506228074E+00   -7.8336404126643009E+00   -5.4244404571774103E+00
C    4.0619534686213559E+00   -7.9725766816157702E+00   -4.1512823263328267E+00
C    3.2090686334182528E+00   -6.6700572494361881E+00   -3.9496954077937665E+00
C    2.3827204230834549E+00   -6.7231941444491925E+00   -2.6166217406276147E+00
C    1.4752295202267325E+00   -5.4419370138182108E+00   -2.4781857308368589E+00
C    8.0856545486282216E-01   -5.3926710270249298E+00   -1.0362020958533720E+00
C    1.1406874198532877E+01   -1.4653768995794978E+01   -1.1817741431743496E+01
O    4.3034193448063842E+00   -8.4396345351089135E+00   -2.0817702230600215E+01
O    4.9754668092170604E+00   -1.1020905158914870E+01   -2.0567809275976181E+01
O    6.2573779448658771E+00   -8.3521951322978971E+00   -2.2487562810364135E+01
O    7.2500546906130241E+00   -1.0909968668671906E+01   -2.1792570799889507E+01
C   -4.8341477841162539E-01   -5.8780817862037038E+00   -1.2613338006861923E+01
H    4.7939761526071073E-01    1.3718744453192544E+00    3.5012196999915921E+00
H    1.9562536722306227E+00    1.6064388036939303E+00    2.1650440914974296E+00
H    4.0030351720880170E-01    2.8542439357194573E+00    2.1626791795947993E+00
H   -1.6628389284858372E-01   -3.9079713017376688E-01    1.8362192720386790E+00
H   -1.1370048754760129E+00    1.1493994577426367E+00    1.0899184192166154E+00
H    9.3340706881136781E-01    1.6515731462711492E+00   -5.4742199282499071E-01
H    1.9161553045302513E+00    1.4322332820116598E-01    2.4084802440608569E-01
H   -1.3692778913297363E-01   -1.5062792191820491E+00   -4.3228563056456665E-01
H   -1.0271795915201447E+00    1.1974187656805739E-02   -1.3146298008526167E+00
H    1.1814633509947856E+00    4.3109163498247949E-01   -2.8003044620924173E+00
H    2.0645920016844257E+00   -1.0823493653937570E+00   -1.9191267750235366E+00
H    9.2505192115534554E-02   -2.7264659788066403E+00   -2.7617941295330701E+00
H   -7.6575912241655142E-01   -1.1935456831716513E+00   -3.6735538908913759E+00
H    1.4789733263335425E+00   -7.6827507277295215E-01   -5.0770551931344077E+00
H    2.3554130610402684E+00   -2.2672617625002296E+00   -4.1413171637385471E+00
H    4.0354366618827925E-01   -3.9217517220466265E+00   -4.9784993038675545E+00
H   -4.2950487000858517E-01   -2.4258117090872973E+00   -5.9705526090366146E+00
H    1.7056070960152667E+00   -2.1294099373006903E+00   -7.4663357200743921E+00
H    2.7287925635397623E+00   -3.4005073157989343E+00   -6.3690148069047972E+00
H    1.1912230604495739E+00   -5.3691915378184820E+00   -7.0406082311949154E+00
H   -1.5503430949273472E-01   -4.1724097047931430E+00   -7.8049352989706087E+00
H    1.6469458994244544E+00   -3.2966833152389312E+00   -9.6278326159159846E+00
H    2.9755129917551413E+00   -4.5536389331783278E+00   -8.8854480392062012E+00
H    1.5586002987857253E+00   -6.6490176958343126E+00   -9.5748101118788842E+00
H   -6.3175699475686076E-02   -5.5110562438107937E+00   -9.9129691786058718E+00
H    1.1026596367454913E+00   -7.3977562861700576E+00   -1.1760863227775895E+01
H    1.4361685644833675E+00   -6.9269932726839736E+00   -1.4456811029110677E+01
H    1.9089522211502574E+00   -5.0281420085530346E+00   -1.3985959062239521E+01
H    3.2240847972215172E+00   -8.7565390525251381E+00   -1.5117009681241452E+01
H    6.1873204361353276E+00   -4.1963993123200725E+00   -1.6386191626387987E+01
H    5.5203292629164871E+00   -5.6213188456324348E+00   -1.2125830269173766E+01
H    6.9506545032822507E+00   -5.2128519229611268E+00   -1.3515061148523582E+01
H    6.9810236060982884E+00   -2.6631880629144438E+00   -1.2809601336396472E+01
H    5.3957378706578059E+00   -8.2360556885091341E-01   -1.2087705157115487E+01
H    4.6810255556100477E+00   -2.2419188875706748E+00   -1.3354145585886949E+01
H    2.8366968211191117E+00   -2.7351083333227804E+00   -1.1172477105242365E+01
H    3.2625974991261923E+00   -8.6155967005395273E-01   -1.0678957826568363E+01
H    2.6491720704931216E+00   -6.5714876714925222E-02   -1.3172735893670600E+01
H    2.3222779114809562E+00   -1.9271777653391182E+00   -1.3695472926016699E+01
H    5.3845211630279677E-01   -2.0850501155101604E+00   -1.1599788615629503E+01
H    7.4322358305728131E-01   -1.4349025294574230E-01   -1.1383442305999248E+01
H    1.4765488671013979E-01    1.8256409935446638E-01   -1.4008789234351163E+01
H   -1.4649679592879836E-01   -1.7557987377833562E+00   -1.4162811934370035E+01
H   -1.9644654821552707E+00   -1.6204328031452297E+00   -1.2162115260890383E+01
H   -1.6776996127217567E+00    3.1713634772952964E-01   -1.2047757243260499E+01
H   -2.3546702824395571E+00    5.7193571074281579E-01   -1.4642535361431825E+01
H   -2.6636084395873265E+00   -1.3672129742301278E+00   -1.4749951930897987E+01
H   -4.4509543388909831E+00   -1.2188590461185689E+00   -1.2771239763912050E+01
H   -4.0867585034438525E+00    6.9767056237985614E-01   -1.2557932292318347E+01
H   -4.7832851734221542E+00    1.0993890587280608E+00   -1.5140551710552774E+01
H   -5.2139038875858326E+00   -8.1054584571332133E-01   -1.5306029554927170E+01
H   -6.9688854790845776E+00   -6.2533314293029107E-01   -1.3296941393746309E+01
H   -6.4788125658785480E+00    1.2612528959330904E+00   -1.3025277762727722E+01
H   -7.1559041320839905E+00    1.7673755759319787E+00   -1.5560730606302888E+01
H   -7.6723872337508574E+00   -8.6060365420647184E-02   -1.5828152040540724E+01
H   -8.9737968949401505E+00    1.1531559993326903E+00   -1.3133950079531639E+01
H   -9.4181950900021789E+00    2.2769068106388515E+00   -1.4727549956531259E+01
H   -1.0096373118073661E+01    3.8375799737234711E-01   -1.4637268030556905E+01
H    7.5419582807868935E+00   -5.2454203112406068E+00   -1.0914914952399217E+01
H    8.6778903171489148E+00   -3.5736629308645860E+00   -1.1187174606662719E+01
H    7.1485297961167245E+00   -3.5786094448757209E+00   -9.8667422120933264E+00
H    4.1484692413706981E+00   -1.1285448104588932E+01   -1.5013915874142407E+01
H    6.7316104859179378E+00   -1.1309433453452119E+01   -1.1601376510362183E+01
H    4.9348876459936584E+00   -1.0635509298758851E+01   -1.2291062513654040E+01
H    3.8555190721423016E+00   -1.2909716734640575E+01   -1.1133926869017525E+01
H    4.8037397772480190E+00   -1.5017864339378907E+01   -1.0886553673281780E+01
H    6.3967983082519781E+00   -1.4229610656613701E+01   -1.1821520690559531E+01
H    7.8534400080605602E+00   -1.4732415066337817E+01   -9.5181161262448342E+00
H    6.2897138855908041E+00   -1.5766630865618383E+01   -8.8255457981693510E+00
H    6.3727571392238369E+00   -1.7401609463268358E+01   -1.0872687666173860E+01
H    7.6462089763984284E+00   -1.6262412768058677E+01   -1.1815932166625105E+01
H    9.3751827231438494E+00   -1.6595552625017827E+01   -9.7100931484051927E+00
H    8.1309851796841990E+00   -1.7943324636307956E+01   -9.0004980789693239E+00
H    8.2066342671479635E+00   -1.9271641802630512E+01   -1.1320388379428685E+01
H    9.3813311582441905E+00   -1.7898438350869991E+01   -1.2087790505716766E+01
H    1.1190267541386373E+01   -1.8386666886259867E+01   -1.0119020994799076E+01
H    1.0028731042866081E+01   -1.9828176767002407E+01   -9.4482473849942714E+00
H    1.0040412023217129E+01   -2.0957713484350052E+01   -1.1906478446989128E+01
H    1.1242314783285543E+01   -1.9541127143931160E+01   -1.2541433421039967E+01
H    1.3036259855633586E+01   -2.0205066220900665E+01   -1.0651867952499515E+01
H    1.1825394595371506E+01   -2.1604404702010886E+01   -9.9893503258046721E+00
H    1.1775790894292999E+01   -2.2696197593152561E+01   -1.2472585588115393E+01
H    1.3064320827007947E+01   -2.1340065074712381E+01   -1.3072923465070437E+01
H    1.4787835717123144E+01   -2.2117012513189685E+01   -1.1166938474987596E+01
H    1.3482461392560618E+01   -2.3436164135501937E+01   -1.0518045839705499E+01
H    1.3382624248305703E+01   -2.4529235866099654E+01   -1.2968579402771848E+01
H    1.4754602389397441E+01   -2.3264051146549427E+01   -1.3583000703366610E+01
H    1.5437305677451770E+01   -2.4781790589870816E+01   -1.0773857792724923E+01
H    1.5325018773944304E+01   -2.5967580643014468E+01   -1.2382701745580565E+01
H    1.6597622814573054E+01   -2.4428642237783588E+01   -1.2355781356592830E+01
H    4.5700359056999753E+00   -1.1562527553962569E+01   -8.5262598267540941E+00
H    5.1199482640250968E+00   -1.0151911864863864E+01   -9.8362254844447587E+00
H    3.2043063865167487E+00   -1.0844885291378644E+01   -9.8395386893667496E+00
H    9.6312298145873463E+00   -1.2210168169169030E+01   -1.5687294554499841E+01
H    7.9958919996233551E+00   -3.1269037943168816E+00   -1.8989764185130948E+01
H    1.1212682035313005E+01   -2.9767485475885547E+00   -1.8296588609430604E+01
H    1.2397000544469089E+01   -2.7134380523347903E+00   -1.9924779776414308E+01
H    1.1095875886965761E+01   -3.0633688729283726E-01   -1.8006502081349957E+01
H    1.1236790324476214E+01   -3.5075119935898058E-01   -2.1183828544084310E+01
H    1.0649973413147586E+01    9.0284172472454538E-01   -1.9760238231177091E+01
H    1.2587759812713170E+01    2.6508508503401766E+00   -2.0525892547874832E+01
H    1.3114393732872189E+01    1.3691771073564549E+00   -2.1971155764044322E+01
H    1.0230432163840161E+01    1.3650458566979344E+00   -2.2422576140755343E+01
H    1.0317943200559217E+01    3.1055630141802117E+00   -2.1559873530722122E+01
H    1.2074201608570494E+01    3.9587827742998414E+00   -2.3311567229577491E+01
H    1.2281054003754543E+01    2.1498728521044868E+00   -2.4066878726355370E+01
H    9.6425454610613048E+00    2.0783748463440723E+00   -2.4597999434641729E+01
H    9.4349983644711273E+00    3.8750869398625034E+00   -2.3849582921817944E+01
H    1.1067999684377771E+01    4.8820536332378444E+00   -2.5693696612852172E+01
H    1.1428296827620288E+01    3.0743906116432611E+00   -2.6400950466118015E+01
H    8.8303243627627879E+00    2.7016732384391409E+00   -2.6859296211643290E+01
H    8.4049430542354067E+00    4.4293506316086901E+00   -2.6039412840497331E+01
H    9.9183227165844468E+00    5.6771909188377299E+00   -2.7891518190827721E+01
H    1.0301971409419522E+01    3.9377957787396412E+00   -2.8734475263322761E+01
H    7.6881465524076704E+00    3.4745372359414652E+00   -2.9023027327178553E+01
H    7.2660496344855332E+00    5.1486217415334901E+00   -2.8092217711542588E+01
H    8.6660808800177165E+00    6.5194784191314197E+00   -2.9953162353121840E+01
H    9.0076399419724886E+00    4.8349763632589680E+00   -3.0915565397252752E+01
H    6.3741261748970937E+00    4.3789720382233472E+00   -3.1050035677073765E+01
H    6.0355257167703806E+00    6.0181793411691231E+00   -3.0021206028948228E+01
H    6.9260838438065937E+00    5.6252766661987108E+00   -3.3152232622896243E+01
H    5.8683151558918105E+00    7.0715897745284586E+00   -3.2268756032527840E+01
H    7.8673944630621548E+00    7.0739106443368502E+00   -3.2153101492617296E+01
H    1.2756619513288806E+01   -1.1364652255162901E+00   -1.6307174084856936E+01
H    1.3589661323755823E+01   -2.3928828383404870E+00   -1.7665846565632588E+01
H    1.4139068255045238E+01   -4.7187382116563220E-01   -1.7631232485564048E+01
H    1.0870894342602362E+01   -5.7691101114715737E+00   -2.2995984391964296E+01
H    1.0588563084423283E+01   -3.1573523980970446E+00   -2.4077219146872800E+01
H    1.0684136426174673E+01   -1.4147225467161622E+00   -2.3056306860482724E+01
H    1.3237052655711420E+01   -3.0778423687586942E+00   -2.4478169451971265E+01
H    1.3829557588058343E+01   -2.7236875501147972E+00   -2.1801301428011158E+01
H    1.5105444120516687E+01   -2.6576649257764724E+00   -2.3348671026673259E+01
H    1.6030285232902081E+01   -3.2692279345037811E-01   -2.2562360835634891E+01
H    1.4554405450091993E+01   -1.0970414355868489E-01   -2.1253891506537762E+01
H    1.5545694188215068E+01   -2.6176205130704191E+00   -2.0236315377859039E+01
H    1.7194204804593983E+01   -2.0972436864529542E+00   -2.1136975744647721E+01
H    1.7227951019592464E+01    2.0604624813912550E-01   -1.9885468708697573E+01
H    1.5427133721487341E+01   -1.0165228905069754E-01   -1.9177940669772038E+01
H    1.6318653142811993E+01   -2.3644446713812020E+00   -1.7978572754009562E+01
H    1.8139522685390975E+01   -1.9579381398615694E+00   -1.8605226101505021E+01
H    1.8223269046611691E+01    2.5849085668535454E-01   -1.7248041149715920E+01
H    1.6286087758687728E+01    2.0900755898748474E-01   -1.6894292303167660E+01
H    1.6516705982083682E+01   -1.9495316225526380E+00   -1.5447206286304395E+01
H    1.8372510758907673E+01   -2.2371651850676040E+00   -1.6047014031834713E+01
H    1.9077261071355515E+01    1.1243159213272011E-01   -1.4924055680730781E+01
H    1.7234458010553716E+01    3.3277846832171082E-01   -1.4260666375062860E+01
H    1.7381398807871317E+01   -1.8155642430279115E+00   -1.2817313333403947E+01
H    1.8971748786455624E+01   -2.4493531058039739E+00   -1.3775411726828137E+01
H    2.0364235601072455E+01   -3.3346436785050826E-01   -1.2871251226693470E+01
H    1.8772731820402747E+01    2.7271986425767480E-01   -1.1871682331683173E+01
H    1.8627513370027785E+01   -2.0148528244783765E+00   -1.0584913354757214E+01
H    2.0101998095617422E+01   -2.7579732610805903E+00   -1.1641833125602504E+01
H    2.0371114952800831E+01   -1.2980364677361005E+00   -8.9793154927876504E+00
H    2.1833363851318769E+01   -1.5695675564675846E+00   -1.0308923410653914E+01
H    2.0783269373013948E+01    1.2902542842808862E-01   -1.0317424862378560E+01
H    1.1930495087319414E+01   -2.0050321042570673E+00   -2.6430618557275878E+01
H    1.1229320186827344E+01   -5.1928706111392053E-01   -2.5231995564260739E+01
H    1.3151278154656339E+01   -5.2557752584808248E-01   -2.5786449712160270E+01
H    1.1863279625049783E+01   -1.1609816396006339E+01   -1.7976898680551983E+01
H    1.2150024310653681E+01   -9.0333470258111550E+00   -2.2927058528866851E+01
H    1.5136825745735232E+01   -1.2002685950944576E+01   -2.1403234322696211E+01
H    1.4225160081240421E+01   -1.1513854188522744E+01   -2.3152044921356318E+01
H    1.6302414702382876E+01   -9.8526251153290207E+00   -2.3690913898051317E+01
H    1.7769603685430610E+01   -8.5381120443227747E+00   -2.2774038230756116E+01
H    1.6479849661817735E+01   -8.6015692780884656E+00   -2.1240670822933886E+01
H    1.8583487920418776E+01   -9.5911914241547649E+00   -1.9698194662264580E+01