 # Version information for this restart file 
 # current date 2023-03-26 17:05:14.430
 # current working dir /mnt/scratch2/users/40265864/MSc_ML_MM/ln_replacements/xyz/Gd_L6_O_O_O_O/geometry_optimisation/run-6
 # Program compiled at                              Mon 24 Oct 18:14:20 BST 2022
 # Program compiled on                          login1.pri.kelvin2.alces.network
 # Program compiled for                                                    local
 # Source code revision number                                         svn:17462
 &GLOBAL
   PRINT_LEVEL  LOW
   PROJECT_NAME molecule_name
   RUN_TYPE  GEO_OPT
 &END GLOBAL
 &MOTION
   &GEO_OPT
     OPTIMIZER  BFGS
     MAX_DR     5.0000000000000000E-01
     MAX_FORCE     5.0000000000000000E-01
     RMS_DR     5.0000000000000003E-02
     RMS_FORCE     5.0000000000000003E-02
     STEP_START_VAL  2
   &END GEO_OPT
 &END MOTION
 &FORCE_EVAL
   METHOD  QS
   &DFT
     BASIS_SET_FILE_NAME ../BASIS_MOLOPT_UCL
     BASIS_SET_FILE_NAME BASIS_SET
     POTENTIAL_FILE_NAME ../POTENTIAL
     UKS  T
     MULTIPLICITY  6
     CHARGE  3
     &SCF
       MAX_SCF  50
       EPS_SCF     5.0000000000000002E-05
       SCF_GUESS  RESTART
       &OT  T
         MINIMIZER  DIIS
         PRECONDITIONER  FULL_KINETIC
       &END OT
       &OUTER_SCF  T
         EPS_SCF     5.0000000000000002E-05
         MAX_SCF  20
       &END OUTER_SCF
     &END SCF
     &MGRID
       NGRIDS  2
       CUTOFF     4.0000000000000000E+02
       REL_CUTOFF     5.0000000000000000E+01
     &END MGRID
     &XC
       DENSITY_CUTOFF     1.0000000000000000E-10
       GRADIENT_CUTOFF     1.0000000000000000E-10
       TAU_CUTOFF     1.0000000000000000E-10
       &XC_FUNCTIONAL  NO_SHORTCUT
         &PBE  T
         &END PBE
       &END XC_FUNCTIONAL
     &END XC
   &END DFT
   &SUBSYS
     &CELL
       A     3.6000000000000000E+01    0.0000000000000000E+00    0.0000000000000000E+00
       B     0.0000000000000000E+00    3.4000000000000000E+01    0.0000000000000000E+00
       C     0.0000000000000000E+00    0.0000000000000000E+00    3.8000000000000007E+01
       PERIODIC  NONE
       MULTIPLE_UNIT_CELL  1 1 1
     &END CELL
     &COORD
C    7.5078004479844662E-01    1.6909002847346597E+00    2.3397120133729192E+00
C   -8.5033418008125788E-03    7.2311241481029176E-01    1.3400782680231149E+00
C    7.8505090567962788E-01    5.5530844462266060E-01   -4.6404226892483927E-03
C    7.4144519696356881E-02   -4.3468887160334396E-01   -9.9647292010027799E-01
C    9.6563228357997277E-01   -6.5661511970540742E-01   -2.2708580014586461E+00
C    3.1338341950073151E-01   -1.6438325628951267E+00   -3.3057449665448142E+00
C    1.2689560689989792E+00   -1.8515908186430956E+00   -4.5395854012944081E+00
C    6.4407163582435645E-01   -2.8671455661849485E+00   -5.5652442838951890E+00
C    1.6061190348090617E+00   -3.1329359480953811E+00   -6.7851543910693479E+00
C    1.0268690401043745E+00   -4.3300710393167599E+00   -7.6352038799713124E+00
C    1.7944386010732198E+00   -4.3259429908798683E+00   -9.0099305106052441E+00
C    1.1900774219078758E+00   -5.4794823838118525E+00   -9.8938196033533714E+00
O    1.6620519999007368E+00   -5.2968960046907538E+00   -1.1340222083462095E+01
C    1.0331072136787460E+00   -6.2725010868319222E+00   -1.2327273508708959E+01
C    1.9269255593943901E+00   -6.1929972151795907E+00   -1.3608010511474513E+01
O    3.3360790578166171E+00   -6.6176552254596617E+00   -1.3112340384193010E+01
C    4.0448676249384254E+00   -6.5763396663483746E+00   -1.4385799463705016E+01
C    3.8273770954756077E+00   -7.7032630323010434E+00   -1.5330097824361678E+01
C    4.4696197542552527E+00   -7.4791929880192871E+00   -1.6618352997008252E+01
C    5.2993573603511201E+00   -6.3007380912174620E+00   -1.6871321542304727E+01
C    5.5050870995038323E+00   -5.1447051644982054E+00   -1.6028354782244595E+01
C    4.7220153112778753E+00   -5.2666391954566727E+00   -1.4794960304362267E+01
O    4.8918304703348969E+00   -4.2120157616307319E+00   -1.3810564433912372E+01
C    5.9889480374654305E+00   -4.7285390102591034E+00   -1.2877454993682528E+01
C    6.5582106160553897E+00   -3.5283652028613326E+00   -1.2013890368467042E+01
O    5.3183058134273393E+00   -2.9462285076207073E+00   -1.1334187576008240E+01
C    4.6566893723861602E+00   -1.8466016754624692E+00   -1.2179987550791148E+01
C    3.2060758968634975E+00   -1.6618216662031555E+00   -1.1598834246398061E+01
C    2.2875765640905592E+00   -1.1536868086289549E+00   -1.2762798231154594E+01
C    8.2658669811196051E-01   -1.0576614893122305E+00   -1.2200094060116292E+01
C   -1.8431335749600739E-01   -8.1416802578481795E-01   -1.3373743507792494E+01
C   -1.6375603044198326E+00   -6.3548780813158035E-01   -1.2817777414402890E+01
C   -2.6662281129319316E+00   -4.1140126390328963E-01   -1.3980113004803160E+01
C   -4.1040090204621817E+00   -2.1014648832986021E-01   -1.3385387963893505E+01
C   -5.1586388646108885E+00    1.1906935392304473E-01   -1.4500073691138313E+01
C   -6.5783951436557269E+00    3.8943092189759682E-01   -1.3882621866567021E+01
C   -7.6273382686516147E+00    8.1713799021394851E-01   -1.4979914222041909E+01
C   -9.0740000085062142E+00    1.1453990793219799E+00   -1.4357745345960431E+01
C    7.5747909002913332E+00   -4.0302980639309451E+00   -1.0921216992033798E+01
C    6.0253935018502087E+00   -6.5420182193483436E+00   -1.8138351044025406E+01
N    6.7406183779489472E+00   -5.4385134894966010E+00   -1.8678024168917251E+01
C    7.4596005011576736E+00   -5.9120939861661839E+00   -1.9817747687888843E+01
N    7.6771321108618622E+00   -7.2326956658807484E+00   -2.0355472844092411E+01
Gd    6.5414679990623199E+00   -9.1965035786460412E+00   -2.0300428386261373E+01
N    5.7873799141000379E+00   -7.8919762256680999E+00   -1.8600884269010592E+01
C    4.8282746068700302E+00   -8.4542670193405982E+00   -1.7700626332342953E+01
N    4.4984656620462378E+00   -9.8234763867784860E+00   -1.7415330333195637E+01
C    5.7224335154541119E+00   -1.0559405953636576E+01   -1.7553199249925441E+01
C    6.1076610541282816E+00   -1.1329892145548577E+01   -1.6331164435650443E+01
C    5.3698707406018311E+00   -1.1472240889649450E+01   -1.5089473366043011E+01
C    6.2142823130345102E+00   -1.2157726851399264E+01   -1.4106356779745218E+01
O    5.5236808487130622E+00   -1.2733540312237537E+01   -1.2971864780960749E+01
C    5.5735823099685815E+00   -1.1653929676865962E+01   -1.1900142451028115E+01
C    4.7811435672879270E+00   -1.2217426551467769E+01   -1.0646949047324920E+01
O    5.7028497961527860E+00   -1.3203622004437010E+01   -9.9564556364916452E+00
C    5.9492038911811731E+00   -1.4525128913788238E+01   -1.0686231990165377E+01
C    6.8985129947102406E+00   -1.5427083489591771E+01   -9.8136423034832845E+00
C    7.3077126728845654E+00   -1.6642951036873360E+01   -1.0723167570517994E+01
C    8.5041761816034729E+00   -1.7389702029431188E+01   -1.0026215371694807E+01
C    9.0736810463044240E+00   -1.8450341243802484E+01   -1.1035065628378010E+01
C    1.0327852796399066E+01   -1.9193684435541037E+01   -1.0454986117571973E+01
C    1.0906938396939228E+01   -2.0169660962183265E+01   -1.1540325885229525E+01
C    1.2138253253616552E+01   -2.0973128780584698E+01   -1.0996302501276418E+01
C    1.2683599211842475E+01   -2.1965101106719146E+01   -1.2081919363523991E+01
C    1.3857297325093471E+01   -2.2840786174914211E+01   -1.1523775511783002E+01
C    1.4352258246882695E+01   -2.3875647527697421E+01   -1.2594302891861979E+01
C    1.5485935777802689E+01   -2.4807624188282517E+01   -1.1991999189380239E+01
C    4.3729737778043933E+00   -1.1088279031594691E+01   -9.6331571858488445E+00
C    7.7261042805626108E+00   -1.2238086134929116E+01   -1.4137403813985912E+01
C    8.4588302124464771E+00   -1.2105472391511789E+01   -1.5422266121534355E+01
C    7.5344105295388424E+00   -1.1621916655967434E+01   -1.6438058886097082E+01
C    7.9414233534739900E+00   -1.1081925221022189E+01   -1.7765303418935321E+01
N    9.2932612242011317E+00   -1.1269873961488857E+01   -1.8142237725296571E+01
C    9.5190575067386423E+00   -1.0549355865055182E+01   -1.9355791382359140E+01
N    8.7636109565240421E+00   -9.5873211460142862E+00   -2.0106596454445526E+01
C    9.6197343150819510E+00   -9.1957154464225646E+00   -2.1216849480379036E+01
N    9.5685323596930356E+00   -8.0121182632672685E+00   -2.2023711781532160E+01
C    8.6932352439725076E+00   -7.0566946651502924E+00   -2.1386869325088977E+01
C    9.0779763775963858E+00   -5.6193208956596870E+00   -2.1519031124215161E+01
C    8.3470775113444269E+00   -4.9166205587111556E+00   -2.0474910172506124E+01
C    8.6587574066474264E+00   -3.6273098322816533E+00   -1.9891992535792262E+01
C    9.8182505043648156E+00   -3.0300761845460120E+00   -2.0559940735289640E+01
O    1.0282839334415462E+01   -1.7721740143566849E+00   -2.0002888690411208E+01
C    1.1535092198248993E+01   -2.1619383390606703E+00   -1.9203148055169862E+01
C    1.2106852230542835E+01   -8.8107935230111012E-01   -1.8451659392550187E+01
O    1.2686516051246603E+01    4.4506197735405408E-02   -1.9516629076781612E+01
C    1.1631190107502908E+01    5.9610629979607899E-01   -2.0476701950498203E+01
C    1.2199170580849797E+01    1.8056045289041978E+00   -2.1301440175766277E+01
C    1.0969143710480076E+01    2.2739591099826275E+00   -2.2172619728291195E+01
C    1.1492543420557132E+01    2.9007633876510130E+00   -2.3516100980105538E+01
C    1.0234306598866628E+01    3.1401652967426998E+00   -2.4423060547363512E+01
C    1.0589381400632622E+01    3.7585699965929691E+00   -2.5819211659362075E+01
C    9.2724395638594466E+00    3.8326930441852696E+00   -2.6669671435140938E+01
C    9.4773211914669204E+00    4.5422735765284843E+00   -2.8050213732503067E+01
C    8.1067567026607765E+00    4.6130381119208170E+00   -2.8809721652645262E+01
C    8.2146964452948126E+00    5.3971288720047239E+00   -3.0159245929955265E+01
C    6.8029665956788703E+00    5.5129074041763850E+00   -3.0836714387820599E+01
C    6.8753563782010634E+00    6.3637884077773945E+00   -3.2170850864321146E+01
C    1.3231199144998534E+01   -1.2653048184906919E+00   -1.7415819065257249E+01
C    1.0662492307138532E+01   -3.8047646939219817E+00   -2.1570034012773352E+01
C    1.0267348779808446E+01   -5.1011188547193740E+00   -2.2167104548678605E+01
O    1.1847287345426805E+01   -3.1891072882874840E+00   -2.2124781578556874E+01
C    1.1327341501740223E+01   -2.4479441394077761E+00   -2.3363287331886127E+01
C    1.2564282277488958E+01   -2.0234968634705170E+00   -2.4259765324493859E+01
O    1.3446469936270720E+01   -1.1628627592618574E+00   -2.3378671912230466E+01
C    1.4458528370061098E+01   -1.9296145598979915E+00   -2.2531308821433420E+01
C    1.5335775085281812E+01   -8.8956258475351291E-01   -2.1746535056055567E+01
C    1.6153879387446619E+01   -1.6831429687018133E+00   -2.0663049048670963E+01
C    1.6453425521601364E+01   -6.6202664433244374E-01   -1.9506486007273566E+01
C    1.7065660262733104E+01   -1.4444700716528731E+00   -1.8295623948800184E+01
C    1.7275033932721385E+01   -4.9856291063358543E-01   -1.7061812044319698E+01
C    1.7544967618403685E+01   -1.3680757440658109E+00   -1.5784867412940157E+01
C    1.8069686771482445E+01   -5.0593509951604232E-01   -1.4585897973493951E+01
C    1.8411019159502821E+01   -1.4328792774331740E+00   -1.3368144267729841E+01
C    1.9332718813461916E+01   -7.2343450444317547E-01   -1.2319456591865702E+01
C    1.9674861305545200E+01   -1.7148645336835957E+00   -1.1151007561808603E+01
C    2.0718619945534563E+01   -1.0762797653792475E+00   -1.0142960898094955E+01
C    1.2184314085648630E+01   -1.2116710801119117E+00   -2.5547389742900869E+01
C    1.0928268014254220E+01   -9.9084622783640981E+00   -2.1125998304098939E+01
C    1.0901307997696653E+01   -1.0650292477280772E+01   -1.9877380946528202E+01
C    1.2016608653316297E+01   -1.1104869065490115E+01   -1.9069283844737267E+01
C    1.3275634974172757E+01   -1.0848346732345686E+01   -1.9770616378883080E+01
C    1.3343540633837428E+01   -1.0041435405468818E+01   -2.1071494089460732E+01
C    1.2152769614737501E+01   -9.6248967900980613E+00   -2.1842610068002390E+01
O    1.4628292598255179E+01   -9.7642933331177542E+00   -2.1684620703842274E+01
C    1.5036792175365983E+01   -1.1125505495832584E+01   -2.2278980928850189E+01
C    1.6423190940867716E+01   -1.0898630586898365E+01   -2.2999361295474792E+01
O    1.7399947930616626E+01   -1.0553116124774197E+01   -2.1890407962676118E+01
C    1.7579835998858357E+01   -9.0598276735254881E+00   -2.1638736421187126E+01
C    1.8772153438555733E+01   -8.8380631141180412E+00   -2.0638297175996119E+01
C    1.8724986715731639E+01   -7.3240074115931391E+00   -2.0229327758120050E+01
C    1.9959683476276705E+01   -7.0512531051774241E+00   -1.9295032800944306E+01
C    1.9791448240625069E+01   -5.6091713700986876E+00   -1.8700036667630915E+01
C    2.1012367103284756E+01   -5.1742605236864012E+00   -1.7814340100807527E+01
C    2.0777843877861976E+01   -3.6963163128762146E+00   -1.7336114204793446E+01
C    2.1904817504445781E+01   -3.1695644708238646E+00   -1.6378924374442413E+01
C    2.1691336073517455E+01   -1.6383795518747479E+00   -1.6096027016127643E+01
C    2.2735463163638407E+01   -1.0677845231107808E+00   -1.5072478174870746E+01
C    2.2607495006007948E+01    4.9091603140686230E-01   -1.4945375702300478E+01
C    2.3666456628990336E+01    1.0698082766854142E+00   -1.3904982547982545E+01
C    1.6969413113708150E+01   -1.2142625705592405E+01   -2.3779441464500977E+01
O    1.4489853327177405E+01   -1.1078790643503989E+01   -1.9009259864939946E+01
C    1.4913398818257452E+01   -9.7121481908019085E+00   -1.8463819120574755E+01
C    1.5950657065530232E+01   -9.8538555367923806E+00   -1.7256971618667230E+01
O    1.7207204712303472E+01   -1.0468809599122375E+01   -1.7854869882863746E+01
C    1.7034856075456418E+01   -1.1880271674638497E+01   -1.8415405825482232E+01
C    1.8424294801884411E+01   -1.2604733891731314E+01   -1.8510633021043748E+01
C    1.8074669491577740E+01   -1.4059461441332747E+01   -1.9028061655110765E+01
C    1.8977656085616413E+01   -1.4400473094770970E+01   -2.0269597589928853E+01
C    1.8441012656709457E+01   -1.5725450612202977E+01   -2.0913915399735227E+01
C    1.9353310899769276E+01   -1.6216088204656153E+01   -2.2090640264157518E+01
C    1.8674555508722072E+01   -1.7439894597902491E+01   -2.2798189124695661E+01
C    1.9609311311234094E+01   -1.8068366071666581E+01   -2.3887375197232835E+01
C    1.8896006913540464E+01   -1.9280698069065984E+01   -2.4579834875249407E+01
C    1.9834082614753680E+01   -1.9990096695670466E+01   -2.5614351057998373E+01
C    1.9104557500857037E+01   -2.1205758379242685E+01   -2.6287508882588266E+01
C    2.0075338342737034E+01   -2.1978451954249270E+01   -2.7262717638647690E+01
C    1.6304700965040759E+01   -8.4670843176350328E+00   -1.6599288837196635E+01
N    6.8388944174724644E+00   -1.0439531023515947E+01   -1.8449273787583543E+01
O    8.3371067193448489E+00   -1.2489953901916200E+01   -1.2850147930097396E+01
C    9.3576868497823007E+00   -1.3620053160455884E+01   -1.3054418914734843E+01
C    1.0468774842821661E+01   -1.3440032118049951E+01   -1.1938663016653319E+01
O    9.6851057345912359E+00   -1.3246637106339133E+01   -1.0656806655155009E+01
C    9.5405685356150247E+00   -1.1795844642928332E+01   -1.0205590974622940E+01
C    8.6454164411583658E+00   -1.1790403785596885E+01   -8.9151814889146710E+00
C    8.2724969977417864E+00   -1.0305535080335057E+01   -8.5685965412781488E+00
C    7.4006250757001339E+00   -1.0400630113250866E+01   -7.2626067676310697E+00
C    6.7090373950232101E+00   -9.0270733610863569E+00   -6.9490173053672706E+00
C    5.7888252459427809E+00   -9.1512694228536429E+00   -5.6820855335004037E+00
C    4.9741606763249893E+00   -7.8350777552504223E+00   -5.4279413257033386E+00
C    4.0670739889527558E+00   -7.9762920422476418E+00   -4.1547577692474604E+00
C    3.2136204613264314E+00   -6.6759236821698060E+00   -3.9500368036759901E+00
C    2.3847000422574713E+00   -6.7242522812716556E+00   -2.6208053979710217E+00
C    1.4773132528448956E+00   -5.4497898137987750E+00   -2.4696556014487037E+00
C    8.1501431787977030E-01   -5.4033685524713908E+00   -1.0328346303025073E+00
C    1.1425539446625347E+01   -1.4680687479636584E+01   -1.1811268440629616E+01
O    4.3678046159343431E+00   -8.4582193164055450E+00   -2.0772861105791272E+01
O    5.0431409957758602E+00   -1.0958878916006157E+01   -2.0580307944687732E+01
O    6.2515536615734524E+00   -8.3338531402513887E+00   -2.2436636260611714E+01
O    7.2235644467615012E+00   -1.0841088714843680E+01   -2.1806423751059164E+01
C   -4.7565946235873741E-01   -5.8729232653644630E+00   -1.2600053559902916E+01
H    4.7154432525217305E-01    1.3576084685842575E+00    3.4790601161442560E+00
H    1.9542260866576018E+00    1.6072381376960092E+00    2.1633242039595229E+00
H    3.8620945369008874E-01    2.8401149184858050E+00    2.1634329109764296E+00
H   -1.4924165546014176E-01   -3.7714564823197777E-01    1.8414187757148650E+00
H   -1.1155662026574462E+00    1.1689287445910979E+00    1.0883022800941597E+00
H    9.0978200583571511E-01    1.6430993838000190E+00   -5.4111758068667792E-01
H    1.8989417210465482E+00    1.3157541282215007E-01    2.4904157694356382E-01
H   -1.1940619462540439E-01   -1.4990860676282676E+00   -4.3348102142865969E-01
H   -1.0097176749573236E+00    2.5097889437625216E-02   -1.3162280291553077E+00
H    1.1598606776245977E+00    4.2758577842363210E-01   -2.7938245184670873E+00
H    2.0457093597944760E+00   -1.0924859132569646E+00   -1.9121363727253402E+00
H    1.0819586645289622E-01   -2.7147188393789943E+00   -2.7612041476211693E+00
H   -7.4903181085693493E-01   -1.1732885198126506E+00   -3.6765642298771448E+00
H    1.4564862863736181E+00   -7.7176664929077776E-01   -5.0750151176446403E+00
H    2.3378987047373188E+00   -2.2741941983066143E+00   -4.1366235296498362E+00
H    4.1834486244964519E-01   -3.9107136219061629E+00   -4.9800533909318920E+00
H   -4.0692711596948716E-01   -2.4062979929075525E+00   -5.9770263158949541E+00
H    1.6910136904474318E+00   -2.1242454935556250E+00   -7.4647353122821309E+00
H    2.7144717826762728E+00   -3.4107143913441149E+00   -6.3600620225695703E+00
H    1.2212457818003213E+00   -5.3718815987368451E+00   -7.0353513351829751E+00
H   -1.6291734673396979E-01   -4.1535626135728325E+00   -7.8170326701606516E+00
H    1.6148105623450024E+00   -3.3132065082427973E+00   -9.6576277280247300E+00
H    2.9726200379356822E+00   -4.6034606521085397E+00   -8.8930751203553928E+00
H    1.5629591080979643E+00   -6.6303657111298060E+00   -9.6022825502620908E+00
H   -4.4127866108047697E-02   -5.5239496995194388E+00   -9.9349981997444843E+00
H    1.0973186559048596E+00   -7.3620553180516000E+00   -1.1769624253402453E+01
H    1.3947017047546628E+00   -6.9257818706336156E+00   -1.4440014009378608E+01
H    1.8857501641681769E+00   -5.0113838788511407E+00   -1.3967031869082337E+01
H    3.2377818938115475E+00   -8.7475243408717187E+00   -1.5144789391241778E+01
H    6.1792847823619272E+00   -4.1947247998484256E+00   -1.6390717547042716E+01
H    5.5326084932767943E+00   -5.6078694644617872E+00   -1.2137613543900461E+01
H    6.9581717451468394E+00   -5.2038134070427704E+00   -1.3484623424681097E+01
H    6.9687951428264929E+00   -2.6927408351034758E+00   -1.2817727261523881E+01
H    5.3897578630046379E+00   -8.4496293013473045E-01   -1.2077092322165253E+01
H    4.6950187098060034E+00   -2.2358212326623854E+00   -1.3351244271095666E+01
H    2.8619997061293807E+00   -2.7550318148731381E+00   -1.1189493835623798E+01
H    3.3032797797394289E+00   -8.4876698810368167E-01   -1.0701089516939534E+01
H    2.6480291067706418E+00   -5.4589807432858607E-02   -1.3147023343703394E+01
H    2.3144164758728811E+00   -1.9438034253953258E+00   -1.3688017715283348E+01
H    5.3709638048114960E-01   -2.0876161574226382E+00   -1.1615264667791529E+01
H    7.4915156993940968E-01   -1.3734684761957761E-01   -1.1403354922863731E+01
H    1.4234510128909614E-01    1.8544778369937820E-01   -1.3989177872682028E+01
H   -1.5241435641896556E-01   -1.7602906053619924E+00   -1.4140381006976790E+01
H   -1.9608025983215875E+00   -1.6245475895498707E+00   -1.2184887831199706E+01
H   -1.6732268842481450E+00    3.2337135123109645E-01   -1.2068010219718111E+01
H   -2.3618303437857500E+00    5.7621835936192112E-01   -1.4624971676277330E+01
H   -2.6727189265843019E+00   -1.3723314090306959E+00   -1.4729446411502241E+01
H   -4.4475870817917666E+00   -1.2204281465662263E+00   -1.2795003382151750E+01
H   -4.0838517657802660E+00    7.0122736121642826E-01   -1.2576727942222991E+01
H   -4.7850284200642568E+00    1.0997914580922277E+00   -1.5121089760748415E+01
H   -5.2178196172130953E+00   -8.1509387297327718E-01   -1.5282791545131536E+01
H   -6.9644345528486271E+00   -6.2385290987104858E-01   -1.3326749820368020E+01
H   -6.4711077604761496E+00    1.2674363382168876E+00   -1.3045015622924190E+01
H   -7.1343561439621954E+00    1.7783694519666173E+00   -1.5553634660598078E+01
H   -7.6721413916565924E+00   -8.2644628327779662E-02   -1.5805478376984372E+01
H   -8.9427970778563637E+00    1.1519436657347555E+00   -1.3143929439895684E+01
H   -9.3665777069808325E+00    2.2649498231420124E+00   -1.4744018602403839E+01
H   -9.9612763477488926E+00    3.6372342175887856E-01   -1.4692459226759359E+01
H    7.5219407033356740E+00   -5.2530304312545120E+00   -1.0927453066336973E+01
H    8.6559832924328557E+00   -3.5535797607236956E+00   -1.1214366244769080E+01
H    7.1170520107777628E+00   -3.5636525052480308E+00   -9.8826118121835957E+00
H    4.1792812495297573E+00   -1.1283553929382844E+01   -1.5028397494771289E+01
H    6.7175192695716852E+00   -1.1291995945836367E+01   -1.1603452558738580E+01
H    4.9393524240831379E+00   -1.0655056018349288E+01   -1.2268575475434224E+01
H    3.8932176931671787E+00   -1.2902521799594595E+01   -1.1155545547150130E+01
H    4.8139175577622231E+00   -1.4997550124913609E+01   -1.0868981081515596E+01
H    6.3842031022995815E+00   -1.4223293628359293E+01   -1.1803552226910377E+01
H    7.8410741473684995E+00   -1.4707651060004080E+01   -9.5371982638513675E+00
H    6.2454438846898208E+00   -1.5766210126892281E+01   -8.8433127073212976E+00
H    6.3653864378694269E+00   -1.7407840541519938E+01   -1.0839000828066688E+01
H    7.6598672589976813E+00   -1.6254695029037102E+01   -1.1820587002429646E+01
H    9.3779261185110663E+00   -1.6597794975712439E+01   -9.7225116972507823E+00
H    8.1203049918726293E+00   -1.7956804544298180E+01   -9.0169745541334212E+00
H    8.2143368634008009E+00   -1.9274065716072144E+01   -1.1297753566753011E+01
H    9.3898401452046816E+00   -1.7894000526791661E+01   -1.2070571090846320E+01
H    1.1186146329781327E+01   -1.8388721089514277E+01   -1.0140495340580717E+01
H    1.0020316046161213E+01   -1.9836137045562687E+01   -9.4665810130211963E+00
H    1.0048588914383792E+01   -2.0961398291237344E+01   -1.1887934795881193E+01
H    1.1255987316475835E+01   -1.9538648143384719E+01   -1.2522681591830315E+01
H    1.3031795163356147E+01   -2.0207991340032322E+01   -1.0675404266539037E+01
H    1.1818453778779348E+01   -2.1610085392903748E+01   -1.0007660658906808E+01
H    1.1782426284994525E+01   -2.2697021973009779E+01   -1.2454726727552650E+01
H    1.3075748303448627E+01   -2.1338780700598864E+01   -1.3052451734726912E+01
H    1.4781253203432655E+01   -2.2118320132742273E+01   -1.1191956277661763E+01
H    1.3473245849910974E+01   -2.3441954782630631E+01   -1.0536983486199901E+01
H    1.3395520983141862E+01   -2.4536089099677000E+01   -1.2952965998748603E+01
H    1.4772298385831531E+01   -2.3264040484070577E+01   -1.3561045014438289E+01
H    1.5436141120049246E+01   -2.4777305959891343E+01   -1.0774806322096302E+01
H    1.5306684892774538E+01   -2.5945458106155712E+01   -1.2389044132877098E+01
H    1.6578559379151869E+01   -2.4425309068210368E+01   -1.2369589872779292E+01
H    4.5848583104215122E+00   -1.1604655302374733E+01   -8.5457748755579903E+00
H    5.1364671602525620E+00   -1.0158158099463705E+01   -9.8675505670662673E+00
H    3.1937416000990666E+00   -1.0877512726751890E+01   -9.8697983860596796E+00
H    9.6436746083784115E+00   -1.2220377646920676E+01   -1.5699018385094176E+01
H    7.9909258858319996E+00   -3.1260725799110958E+00   -1.9002614608282219E+01
H    1.1229613159806480E+01   -2.9592563324612855E+00   -1.8301552841257248E+01
H    1.2391805442255729E+01   -2.7271141058945720E+00   -1.9893827529409084E+01
H    1.1085979544466936E+01   -3.3666617175210495E-01   -1.8029163291703199E+01
H    1.1251302344091732E+01   -3.5654081801971227E-01   -2.1162219530241714E+01
H    1.0672043223001108E+01    8.9646258499706699E-01   -1.9750480554177138E+01
H    1.2553871572816478E+01    2.6461629882059827E+00   -2.0495544543176415E+01
H    1.3104502020852555E+01    1.3350192826087357E+00   -2.1961359129837088E+01
H    1.0224587553700163E+01    1.3492102952175733E+00   -2.2435201950792170E+01
H    1.0347721957416127E+01    3.1199507592202638E+00   -2.1555897341954019E+01
H    1.2050468884728767E+01    3.9641828919307485E+00   -2.3306790671440453E+01
H    1.2267321747329275E+01    2.1429137941329781E+00   -2.4070404035395025E+01
H    9.6614377303329633E+00    2.0811720902295181E+00   -2.4605234942966309E+01
H    9.4526843876112885E+00    3.8850290904563138E+00   -2.3857759393519778E+01
H    1.1047264221912396E+01    4.8797529332246086E+00   -2.5687992100799960E+01
H    1.1407106067833716E+01    3.0656361211545304E+00   -2.6398509527529519E+01
H    8.8498661311357125E+00    2.7076393812840678E+00   -2.6870915551510635E+01
H    8.4192589953376711E+00    4.4398146801596088E+00   -2.6047413924864088E+01
H    9.8993217139023582E+00    5.6732266839309942E+00   -2.7885484138956258E+01
H    1.0280304127974805E+01    3.9269939465743344E+00   -2.8730304455290792E+01
H    7.7068653399537563E+00    3.4828458419545969E+00   -2.9033769165123662E+01
H    7.2804390457005548E+00    5.1578718065002374E+00   -2.8098423259653760E+01
H    8.6466495940523309E+00    6.5150782020428606E+00   -2.9944146552540012E+01
H    8.9856750166169626E+00    4.8227115048814699E+00   -3.0908260738374544E+01
H    6.3939419600628389E+00    4.3879568509488482E+00   -3.1066954778712116E+01
H    6.0459890903269509E+00    6.0287935624844922E+00   -3.0035132524752179E+01
H    6.9143223304957697E+00    5.6177027945833524E+00   -3.3132259018000831E+01
H    5.8739274297529853E+00    7.0542403836249479E+00   -3.2244701502747681E+01
H    7.8689297042950672E+00    7.0693991049628346E+00   -3.2149970119615809E+01
H    1.2718237184770652E+01   -1.1206645780231186E+00   -1.6319024484863295E+01
H    1.3577118491343548E+01   -2.4083005384024814E+00   -1.7686169519856286E+01
H    1.4107138484224031E+01   -4.4912600804885189E-01   -1.7665528663666862E+01
H    1.0841469676762642E+01   -5.7799061776744329E+00   -2.2998551664280068E+01
H    1.0604781923376478E+01   -3.1252873537952652E+00   -2.4109644417177723E+01
H    1.0689938473105110E+01   -1.4251761585383746E+00   -2.3074527873192334E+01
H    1.3205311910807092E+01   -3.0555125114097637E+00   -2.4442441101793179E+01
H    1.3818786975973119E+01   -2.7221484553179853E+00   -2.1829886199021274E+01
H    1.5076713072934773E+01   -2.6343204632381019E+00   -2.3348017473747525E+01
H    1.6034791206220149E+01   -3.6832524878162715E-01   -2.2595526914437475E+01
H    1.4520478242628140E+01   -1.2818161553453034E-01   -2.1264126670522927E+01
H    1.5529023821953265E+01   -2.6272035904459501E+00   -2.0221685859300624E+01
H    1.7199781761391719E+01   -2.0654296892036288E+00   -2.1154533824373601E+01
H    1.7245430777888490E+01    1.8497079946595871E-01   -1.9886120869210878E+01
H    1.5425536772636326E+01   -1.0932067987340302E-01   -1.9167890554020296E+01
H    1.6317211236254597E+01   -2.3494975397602835E+00   -1.7980297871090837E+01
H    1.8141014685370276E+01   -1.9295490833478943E+00   -1.8605069848643222E+01
H    1.8228721699144938E+01    2.3645925027309514E-01   -1.7245881939128754E+01
H    1.6285269720429667E+01    1.8985001419138883E-01   -1.6893090274280823E+01
H    1.6510605001775684E+01   -1.9179155908857364E+00   -1.5445682408600018E+01
H    1.8372659453610588E+01   -2.2218232989869535E+00   -1.6041157008659326E+01
H    1.9070911541493704E+01    9.9234920466936702E-02   -1.4919493726021786E+01
H    1.7222860761896275E+01    3.0644047321034285E-01   -1.4250352431260643E+01
H    1.7382805367708965E+01   -1.7914374767565318E+00   -1.2816840062656684E+01
H    1.8973609037762021E+01   -2.4331705143596256E+00   -1.3774833872710861E+01
H    2.0355801822276561E+01   -3.5269273943296020E-01   -1.2866854736466324E+01
H    1.8757201993791302E+01    2.5025217447910586E-01   -1.1864315343941140E+01
H    1.8639198816474547E+01   -1.9974875847704294E+00   -1.0576570326849186E+01
H    2.0117278948976647E+01   -2.7389101174908204E+00   -1.1639791147425486E+01
H    2.0355881814906393E+01   -1.3076570158221288E+00   -9.0031245241573270E+00
H    2.1811915565210413E+01   -1.5838183697856878E+00   -1.0315099011571082E+01
H    2.0782275372512398E+01    1.2717008830789614E-01   -1.0321511455584467E+01
H    1.1942654651062167E+01   -2.0331206287205545E+00   -2.6415694361768697E+01
H    1.1227205990976097E+01   -5.2898107761836755E-01   -2.5196797178719667E+01
H    1.3178653100671857E+01   -5.2859046748418304E-01   -2.5754472212368036E+01
H    1.1861027377613663E+01   -1.1617357240871630E+01   -1.7968256069807058E+01
H    1.2117910420085638E+01   -9.0620316117081483E+00   -2.2916704649108883E+01
H    1.5146118096152520E+01   -1.2006133131611490E+01   -2.1422757545053702E+01
H    1.4265381273140321E+01   -1.1518885397478503E+01   -2.3163087760616875E+01
H    1.6290127687603640E+01   -9.8678487301172417E+00   -2.3656110962241517E+01
H    1.7764853360665459E+01   -8.5697393571125211E+00   -2.2763508227648714E+01
H    1.6483470800887932E+01   -8.6269125470132355E+00   -2.1262191612180402E+01
H    1.8543735697310574E+01   -9.5958673423122605E+00   -1.9712841516910657E+01