 # Version information for this restart file 
 # current date 2023-03-25 19:06:08.999
 # current working dir /mnt/scratch2/users/40265864/MSc_ML_MM/ln_replacements/xyz/Dy_L9_L25_DMF_DMF/geometry_optimisation/run-0
 # Program compiled at                              Mon 24 Oct 18:14:20 BST 2022
 # Program compiled on                          login1.pri.kelvin2.alces.network
 # Program compiled for                                                    local
 # Source code revision number                                         svn:17462
 &GLOBAL
   PRINT_LEVEL  LOW
   PROJECT_NAME molecule_name
   RUN_TYPE  GEO_OPT
 &END GLOBAL
 &MOTION
   &GEO_OPT
     OPTIMIZER  BFGS
     MAX_DR     5.0000000000000000E-01
     MAX_FORCE     5.0000000000000000E-01
     RMS_DR     5.0000000000000003E-02
     RMS_FORCE     5.0000000000000003E-02
     STEP_START_VAL  5
   &END GEO_OPT
 &END MOTION
 &FORCE_EVAL
   METHOD  QS
   &DFT
     BASIS_SET_FILE_NAME ../BASIS_MOLOPT_UCL
     BASIS_SET_FILE_NAME BASIS_SET
     POTENTIAL_FILE_NAME ../POTENTIAL
     UKS  T
     MULTIPLICITY  0
     CHARGE  3
     &SCF
       MAX_SCF  50
       EPS_SCF     5.0000000000000002E-05
       SCF_GUESS  RESTART
       &OT  T
         MINIMIZER  DIIS
         PRECONDITIONER  FULL_KINETIC
       &END OT
       &OUTER_SCF  T
         EPS_SCF     5.0000000000000002E-05
         MAX_SCF  20
       &END OUTER_SCF
     &END SCF
     &MGRID
       NGRIDS  2
       CUTOFF     4.0000000000000000E+02
       REL_CUTOFF     5.0000000000000000E+01
     &END MGRID
     &XC
       DENSITY_CUTOFF     1.0000000000000000E-10
       GRADIENT_CUTOFF     1.0000000000000000E-10
       TAU_CUTOFF     1.0000000000000000E-10
       &XC_FUNCTIONAL  NO_SHORTCUT
         &PBE  T
         &END PBE
       &END XC_FUNCTIONAL
     &END XC
   &END DFT
   &SUBSYS
     &CELL
       A     1.6000000000000000E+01    0.0000000000000000E+00    0.0000000000000000E+00
       B     0.0000000000000000E+00    1.7000000000000000E+01    0.0000000000000000E+00
       C     0.0000000000000000E+00    0.0000000000000000E+00    1.5000000000000002E+01
       PERIODIC  NONE
       MULTIPLE_UNIT_CELL  1 1 1
     &END CELL
     &COORD
C    2.6606883494592024E+00    6.8797757183156127E-01    8.2630259672671369E-01
C    1.7112217500802682E+00   -4.4481521858558226E-01    2.0913045621473228E-01
C    2.0612710595505388E+00   -8.5407186495993959E-01   -1.3074774142166070E+00
O    9.1986873443885742E-01   -1.9526835345414259E-01   -2.2302468146597265E+00
C    1.2349549138475271E+00    1.2579507266741701E+00   -2.1457362022857889E+00
C    5.0761519126006194E-01    2.3023258372860278E+00   -1.3366283667549339E+00
C    8.9861441708056022E-01    3.7543349840529352E+00   -1.3664085090745774E+00
C    2.0137369607426563E+00    4.2402912617592818E+00   -2.2791756366644735E+00
C    2.7426058810633926E+00    3.1863805657405093E+00   -3.0091835657609036E+00
C    2.4048293314609608E+00    1.7516390305148153E+00   -2.9320135358874735E+00
C    3.1266534162518349E+00    1.0525948705851218E+00   -4.0983647607497087E+00
N    2.8230086610077660E+00   -3.4258561015758293E-01   -4.4673164998822807E+00
C    3.6430293167259644E+00   -7.7697477203355547E-01   -5.6119338479575980E+00
C    3.1177052488258319E+00   -1.8782857227637095E+00   -6.5378225585342271E+00
C    1.7446470675822545E+00   -2.3859735274471277E+00   -6.6270416426858150E+00
C    1.4807763057456791E+00   -3.3541226238966053E+00   -7.7602439362162201E+00
C    2.5836447335739843E+00   -3.7117478244048070E+00   -8.7222850578418125E+00
C    3.9730743082944295E+00   -3.1314770330758916E+00   -8.6402929569309936E+00
C    4.1839134051258018E+00   -2.1909079913190750E+00   -7.5172634033927750E+00
C    5.3581922253452978E+00   -1.2398503935387617E+00   -7.2370993616641606E+00
N    4.9651947825387266E+00   -3.8517946428549626E-01   -6.0915587567293707E+00
Dy    6.1584596231983886E+00    1.3212573972891366E+00   -5.1885962524125917E+00
N    3.9560771389620180E+00    2.0653726087359274E+00   -4.8429456566852611E+00
C    3.7533435239784878E+00    3.3647340652010755E+00   -4.1777384419345065E+00
N    4.2417421044893535E+00    4.7258505133617890E+00   -4.4962273181928616E+00
C    5.4691082436516432E+00    4.7664119988424662E+00   -5.2559309362488209E+00
N    6.5227693879920894E+00    3.6837105950410409E+00   -5.2890848874828036E+00
C    7.5906614094637401E+00    4.1239395479100400E+00   -6.2113286134295143E+00
N    8.6644024104349437E+00    3.4807609589655621E+00   -7.0073725205044486E+00
C    8.4454131014593461E+00    2.0776152673960127E+00   -7.3806713647424793E+00
N    7.4095759089000701E+00    1.0974060362101405E+00   -6.9813267610926566E+00
C    7.3654284901245202E+00   -1.5281804640612354E-02   -7.9369191171230709E+00
N    6.5206657006843303E+00   -1.2291013633859529E+00   -8.1230716365529467E+00
C    8.5096734924735493E+00    1.9476327529504336E-01   -8.9364359868502667E+00
C    9.2072483890317702E+00    1.4517654496634700E+00   -8.5648774531032199E+00
C    1.0173595247688311E+01    2.0952126399170523E+00   -9.5040822866254810E+00
C    1.0542820597884107E+01    1.2596401827929713E+00   -1.0720333455782916E+01
C    9.8617160676986035E+00   -4.3908042912717209E-02   -1.1053656270370151E+01
C    8.7551059695108986E+00   -5.8091038003474260E-01   -1.0161505145788460E+01
O    1.0595722614005373E+01    3.4796640302630326E+00   -9.1780517403751603E+00
C    1.2014642167502013E+01    3.4204798966446837E+00   -8.4688294203918559E+00
C    1.1843076402175601E+01    3.1659530450757898E+00   -6.8957907824754381E+00
C    1.1420312934991927E+01    4.5157404309276146E+00   -6.1629431872603346E+00
C    1.2941509448753658E+01    2.3192791924189446E+00   -9.1365219208954080E+00
C    1.3459238567738376E+01    2.8156501864779440E+00   -1.0561184459956577E+01
C    7.3073535472836548E+00    5.6357781488918732E+00   -6.5611845567084321E+00
C    5.9814314431313598E+00    6.0280972188733513E+00   -6.0271983074010747E+00
C    5.4155389220889329E+00    7.4490743975230389E+00   -6.0657245573093173E+00
C    6.1265427616451280E+00    8.6767486060889496E+00   -6.7511827430613582E+00
C    7.5190402867089237E+00    8.1205556855163703E+00   -7.3021661983105073E+00
C    8.1002679711532384E+00    6.6633056405803179E+00   -7.2447641797754860E+00
O    4.0850089714894775E+00    7.5485787516378666E+00   -5.4105433204965285E+00
C    3.1052238588754415E+00    7.1153021807238375E+00   -6.5989697381876162E+00
C    1.6711433352008453E+00    7.3890191164037597E+00   -5.9818035483122145E+00
C    1.4267522367101511E+00    6.5213599346015751E+00   -4.6571820024639043E+00
C    3.3842802340846427E+00    8.0997402325165329E+00   -7.8632742046914004E+00
C    4.1903861219864647E+00    7.3319256119744516E+00   -9.0445510738008448E+00
O    8.2911618625161729E+00    1.9080626170457822E+00   -4.5513675173368151E+00
C    9.4930591721169044E+00    1.2117988416315628E+00   -4.6839253309120661E+00
N    1.0233863435031237E+01    9.3183987267687529E-01   -3.4611582263108263E+00
C    9.5685337977614164E+00    1.2393799743781158E+00   -2.0800980951471675E+00
C    1.1730316178465733E+01    5.3485621683774753E-01   -3.6135108146899566E+00
O    5.1948540015516294E+00    2.2906771468159417E+00   -7.0792237196012318E+00
C    3.9399312903460526E+00    2.1120624218717068E+00   -7.6834040745289194E+00
N    3.8854294040565800E+00    2.4375029489568645E+00   -9.1110403795016186E+00
C    5.2153156617845067E+00    2.8751212917845796E+00   -9.7781624642907907E+00
C    2.5937830256802381E+00    2.2363001282565693E+00   -9.9412976201527457E+00
N    6.1355409743019855E+00    1.8966737276388881E+00   -2.9131068558745872E+00
C    5.9058097265928300E+00    7.1346227317364574E-01   -2.1332758308332735E+00
C    6.1375861788738018E+00   -6.6523883548683205E-01   -2.8648544147433324E+00
N    6.9142965923828719E+00   -5.7403604877310155E-01   -4.0806411199976376E+00
C    7.3725077368485614E+00   -1.7632105341739919E+00   -4.7532482307159585E+00
C    7.1288839894264671E+00   -3.1324041182001672E+00   -4.1577670724420228E+00
C    6.2770229882377304E+00   -3.2267591504499946E+00   -2.9032632897351323E+00
C    5.7244737047876812E+00   -1.9699747079943359E+00   -2.2722564091663831E+00
C    5.7193313090997489E+00    7.6625187853644827E-01   -6.6358424118378256E-01
C    5.7910948325837222E+00    2.1105311428189668E+00    9.9295750835342294E-03
C    6.1097585834229671E+00    3.3466462342456800E+00   -8.0386771996222683E-01
C    6.2762528429521511E+00    3.1891055259219803E+00   -2.2951969751301324E+00
O    5.0427393544499486E+00   -3.3903251958299059E+00   -9.6185935280125392E+00
C    5.9585670797427337E+00   -4.5347996530564672E+00   -8.9632388843447579E+00
C    5.1682404342324446E+00   -5.8920595644411584E+00   -8.4301119650980123E+00
C    5.0435175166099127E+00   -6.2329542058786886E+00   -6.8692818140598506E+00
C    6.8570792541164467E+00   -5.0275995071653652E+00   -1.0175102642652803E+01
C    7.7981418812248453E+00   -3.9030354948262675E+00   -1.0822301943524010E+01
C    1.8606716218962989E+00   -2.4166155965721279E+00   -1.4792621502636591E+00
C    2.1023765148658260E+00   -2.8792372739887835E+00   -2.9894304060815098E+00
H    2.5956482557013296E+00    6.2630144949731759E-01    2.0738076449587983E+00
H    3.8381923379010927E+00    5.1788723821403859E-01    4.9680897222521830E-01
H    2.3604707572713148E+00    1.8290733118909612E+00    4.3646629257617336E-01
H    1.7466811132195164E+00   -1.5001889850871255E+00    8.6307835059283389E-01
H    5.1502941559905557E-01   -1.0112049252617561E-01    2.3312533926309889E-01
H    3.1973115451361851E+00   -4.4783013083847473E-01   -1.6854319830500160E+00
H   -3.8605861849958695E-01    1.8613541345446682E+00   -5.9817624096569366E-01
H    2.9292033673351991E-01    4.5818359880731805E+00   -6.7287258497625346E-01
H    2.4153965852309658E+00    5.4028269354783651E+00   -2.5326540136428211E+00
H    9.8590553157627792E-01   -1.9234034137102802E+00   -5.7332452300027663E+00
H    3.4284525218319761E-01   -3.8088244120850785E+00   -7.9327990786528408E+00
H    2.3925569309669488E+00   -4.4724720614293059E+00   -9.6823030373786967E+00
H    1.1391531910669078E+01    1.7712666222202946E+00   -1.1467283325284699E+01
H    1.0132524856355195E+01   -6.6646354157760090E-01   -1.2088632733521207E+01
H    8.0040974843402672E+00   -1.5848480637257991E+00   -1.0280013561777626E+01
H    1.2504985299224966E+01    4.5807191809831105E+00   -8.6542825895911797E+00
H    1.1039727864498300E+01    2.2316314247416149E+00   -6.7017559245137539E+00
H    1.2965402463539082E+01    2.7746031398978110E+00   -6.5096540411966055E+00
H    1.1473805774105102E+01    4.4000708454672646E+00   -4.9295668568641222E+00
H    1.2211104634221497E+01    5.4124672147507544E+00   -6.5139535791624699E+00
H    1.0266180366223798E+01    4.8048083167014228E+00   -6.5012591029600166E+00
H    1.3867438945566082E+01    2.1756099443753247E+00   -8.3210653120522728E+00
H    1.2377660401316371E+01    1.2050468699863455E+00   -9.1670439576821696E+00
H    1.3794320482460623E+01    1.8758622060070673E+00   -1.1294692359733856E+01
H    1.2603422233265649E+01    3.5295877212923252E+00   -1.1112004225739817E+01
H    1.4450233484950841E+01    3.5476182885491827E+00   -1.0383283333573148E+01
H    5.4455273084465912E+00    1.0039137182456550E+01   -6.8018379705890384E+00
H    8.3843107541381539E+00    8.8774580264136489E+00   -7.7610083693429557E+00
H    9.1797141012763301E+00    6.1277856570954992E+00   -7.6919387706255264E+00
H    3.2728876872279726E+00    5.8796550207246572E+00   -6.8531842982670073E+00
H    1.7289661233779532E+00    8.6068618171771920E+00   -5.7110383790965669E+00
H    7.8288867180392518E-01    7.2500986603590327E+00   -6.8268406457186046E+00
H    1.5631781537485698E+00    5.2998236884239187E+00   -4.8564354740580242E+00
H    2.2908144690651406E+00    6.8281635711380222E+00   -3.8239909616677537E+00
H    2.9944310621501835E-01    6.7769307727400125E+00   -4.1938792885105949E+00
H    2.2088918170087450E+00    8.2789095366461023E+00   -8.2636689995152395E+00
H    3.8934171677001550E+00    9.2454506947083761E+00   -7.4775556177906193E+00
H    4.0644676692508179E+00    6.0826406327766760E+00   -8.9951854693704796E+00
H    3.7103781035269896E+00    7.6570849817012849E+00   -1.0152347602920427E+01
H    5.4055298105456453E+00    7.5714705221604017E+00   -9.0355540768030753E+00
H    1.0076971675576342E+01    7.9516760623755822E-01   -5.7434925451846777E+00
H    9.3359425511646243E+00    1.3128257146695665E-01   -1.5144333646052601E+00
H    1.0392922830852726E+01    1.9138497739620965E+00   -1.4050065865636321E+00
H    8.5017130815054536E+00    1.8600691417655455E+00   -2.2857769475721947E+00
H    1.2165863631786758E+01    4.0593966344133359E-01   -2.4416594988456719E+00
H    1.1784855891959383E+01   -5.6065452818856065E-01   -4.2301187380189766E+00
H    1.2328693185192224E+01    1.4562016659271075E+00   -4.2308613046823709E+00
H    2.8384398612581752E+00    1.7180006955244997E+00   -7.1870028445667344E+00
H    6.0174645974097567E+00    3.1009858598390800E+00   -8.8344952370907546E+00
H    5.6463404042491110E+00    1.9034061467689503E+00   -1.0464770314284047E+01
H    4.9594743279890556E+00    3.8858846837486256E+00   -1.0485253174160162E+01
H    1.6549177402264128E+00    2.0765445268025982E+00   -9.1295925025358518E+00
H    2.4283904489637793E+00    3.2744565251104745E+00   -1.0639557696394785E+01
H    2.7506200430746803E+00    1.2086146077999846E+00   -1.0672613283958569E+01
H    7.9372478200201488E+00   -1.5719716629769205E+00   -5.8771028869550337E+00
H    7.6816026565852944E+00   -4.1347426166147141E+00   -4.6570991762482459E+00
H    6.0548871271600015E+00   -4.3381090957329720E+00   -2.3794362494873567E+00
H    5.0432452051755359E+00   -1.9492464466419461E+00   -1.2413012400597256E+00
H    5.6573354278902794E+00   -3.2213839591010651E-01   -7.7468122514636320E-02
H    5.6501031140456943E+00    2.1902958765213416E+00    1.2412946160813885E+00
H    6.2234112334435663E+00    4.4883968248924742E+00   -3.1136989513325680E-01
H    6.5747940782635661E+00    4.1109816651342728E+00   -3.0979557564601565E+00
H    6.6886458234735180E+00   -3.9828775447795151E+00   -8.0964063468994567E+00
H    4.0975371461238108E+00   -5.9304021854040290E+00   -9.0945570755518883E+00
H    5.8721548413403077E+00   -6.8463712598219795E+00   -8.7367748245542121E+00
H    4.9788083585152902E+00   -7.4485570948974287E+00   -6.6208146641010224E+00
H    5.7881371018676306E+00   -5.3553359372981850E+00   -6.2595268681625136E+00
H    3.9627622088842482E+00   -5.4182412184021596E+00   -6.5635804312333130E+00
H    7.5249780053383537E+00   -5.9787362435634366E+00   -9.7720399366056618E+00
H    6.0777496102365927E+00   -5.4875902736890572E+00   -1.1028338490426011E+01
H    8.4030798819453612E+00   -3.3203182215010592E+00   -9.9118244250018552E+00
H    8.6620226077428164E+00   -4.4422754834331144E+00   -1.1547214929710272E+01
H    7.1606312882637679E+00   -3.0857736831769489E+00   -1.1503207748040259E+01
H    2.5457629720149875E+00   -3.0355399821958082E+00   -6.5192806863503006E-01
H    6.7525138942700280E-01   -2.6147543901342964E+00   -1.1320060044175777E+00
H    2.0623356555154380E+00   -4.1208014747894177E+00   -3.0630059344618381E+00
H    1.2242349941406474E+00   -2.3960023959142362E+00   -3.7153576467447333E+00
H    3.1727336321143262E+00   -2.4262301966305495E+00   -3.4249552128955121E+00
     &END COORD
     &KIND Dy
       BASIS_SET SZV-MOLOPT-SR-GTH
       POTENTIAL GTH-PBE-q20
       &POTENTIAL
 4 6 0 10
  0.5102968700000000E+00 2  0.1767093508000000E+02 -0.8678777000000000E+00
 4
  0.4421234800000000E+00 2 -0.2715733840000000E+01  0.4017884260000000E+01
 -0.5187066270000000E+01
  0.4501723000000000E+00 2 -0.2773475350000000E+01  0.2201152450000000E+01
 -0.2604438700000000E+01
  0.4711651400000000E+00 1 -0.7522756100000000E+00
  0.2618074100000000E+00 1 -0.2424856414000000E+02
         # Potential name:  GTH-PBE-Q20  for symbol:  DY
         # Potential read from the potential filename: ../POTENTIAL
       &END POTENTIAL
     &END KIND
     &KIND Tb
       BASIS_SET SZV-MOLOPT-SR-GTH
       POTENTIAL GTH-PBE-q19
     &END KIND
     &KIND Ho
       BASIS_SET SZV-MOLOPT-SR-GTH
       POTENTIAL GTH-PBE-q21
     &END KIND
     &KIND Gd
       BASIS_SET SZV-MOLOPT-SR-GTH
       POTENTIAL GTH-PBE-q18
     &END KIND
     &KIND Lu
       BASIS_SET SZV-MOLOPT-SR-GTH
       POTENTIAL GTH-PBE-q25
     &END KIND
     &KIND Pm
       BASIS_SET SZV-MOLOPT-SR-GTH
       POTENTIAL GTH-PBE-q15
     &END KIND
     &KIND Tm
       BASIS_SET SZV-MOLOPT-SR-GTH
       POTENTIAL GTH-PBE-q23
     &END KIND
     &KIND F
       BASIS_SET SZV-GTH-PADE
       POTENTIAL GTH-PBE-q7
     &END KIND
     &KIND S
       BASIS_SET SZV-GTH-PADE
       POTENTIAL GTH-PBE-q6
     &END KIND
     &KIND Na
       BASIS_SET SZV-GTH-PADE
       POTENTIAL GTH-PBE-q9
     &END KIND
     &KIND B
       BASIS_SET SZV-GTH-PADE
       POTENTIAL GTH-PBE-q3
     &END KIND
     &KIND Cl
       BASIS_SET SZV-GTH-PADE
       POTENTIAL GTH-PBE-q7
     &END KIND
     &KIND H
       BASIS_SET SZV-GTH-PADE
       POTENTIAL GTH-PBE-q1
       &POTENTIAL
 1
  0.2000000000000000E+00 2 -0.4178900440000000E+01  0.7244633100000000E+00
 0
         # Potential name:  GTH-PBE-Q1  for symbol:  H
         # Potential read from the potential filename: ../POTENTIAL
       &END POTENTIAL
     &END KIND
     &KIND N
       BASIS_SET SZV-GTH-PADE
       POTENTIAL GTH-PBE-q5
       &POTENTIAL
 2 3
  0.2837905100000000E+00 2 -0.1241522559000000E+02  0.1868095920000000E+01
 2
  0.2554050000000000E+00 1  0.1363026257000000E+02
  0.2454945300000000E+00 0
         # Potential name:  GTH-PBE-Q5  for symbol:  N
         # Potential read from the potential filename: ../POTENTIAL
       &END POTENTIAL
     &END KIND
     &KIND O
       BASIS_SET SZV-GTH-PADE
       POTENTIAL GTH-PBE-q6
       &POTENTIAL
 2 4
  0.2445543000000000E+00 2 -0.1666721480000000E+02  0.2487311320000000E+01
 2
  0.2209559200000000E+00 1  0.1833745811000000E+02
  0.2113324700000000E+00 0
         # Potential name:  GTH-PBE-Q6  for symbol:  O
         # Potential read from the potential filename: ../POTENTIAL
       &END POTENTIAL
     &END KIND
     &KIND C
       BASIS_SET SZV-GTH-PADE
       POTENTIAL GTH-PBE-q4
       &POTENTIAL
 2 2
  0.3384712400000000E+00 2 -0.8803673979999999E+01  0.1339210850000000E+01
 2
  0.3025757500000000E+00 1  0.9622486650000001E+01
  0.2915069400000000E+00 0
         # Potential name:  GTH-PBE-Q4  for symbol:  C
         # Potential read from the potential filename: ../POTENTIAL
       &END POTENTIAL
     &END KIND
     &TOPOLOGY
       COORD_FILE_NAME ../../Dy_L9_L25_DMF_DMF.xyz
       COORD_FILE_FORMAT  XYZ
       NUMBER_OF_ATOMS  165
       MULTIPLE_UNIT_CELL  1 1 1
     &END TOPOLOGY
   &END SUBSYS
 &END FORCE_EVAL
