 # Version information for this restart file 
 # current date 2023-03-25 19:05:48.779
 # current working dir /mnt/scratch2/users/40265864/MSc_ML_MM/ln_replacements/xyz/Dy_L9_L25_DMF_DMF/geometry_optimisation/run-0
 # Program compiled at                              Mon 24 Oct 18:14:20 BST 2022
 # Program compiled on                          login1.pri.kelvin2.alces.network
 # Program compiled for                                                    local
 # Source code revision number                                         svn:17462
 &GLOBAL
   PRINT_LEVEL  LOW
   PROJECT_NAME molecule_name
   RUN_TYPE  GEO_OPT
 &END GLOBAL
 &MOTION
   &GEO_OPT
     OPTIMIZER  BFGS
     MAX_DR     5.0000000000000000E-01
     MAX_FORCE     5.0000000000000000E-01
     RMS_DR     5.0000000000000003E-02
     RMS_FORCE     5.0000000000000003E-02
     STEP_START_VAL  4
   &END GEO_OPT
 &END MOTION
 &FORCE_EVAL
   METHOD  QS
   &DFT
     BASIS_SET_FILE_NAME ../BASIS_MOLOPT_UCL
     BASIS_SET_FILE_NAME BASIS_SET
     POTENTIAL_FILE_NAME ../POTENTIAL
     UKS  T
     MULTIPLICITY  0
     CHARGE  3
     &SCF
       MAX_SCF  50
       EPS_SCF     5.0000000000000002E-05
       SCF_GUESS  RESTART
       &OT  T
         MINIMIZER  DIIS
         PRECONDITIONER  FULL_KINETIC
       &END OT
       &OUTER_SCF  T
         EPS_SCF     5.0000000000000002E-05
         MAX_SCF  20
       &END OUTER_SCF
     &END SCF
     &MGRID
       NGRIDS  2
       CUTOFF     4.0000000000000000E+02
       REL_CUTOFF     5.0000000000000000E+01
     &END MGRID
     &XC
       DENSITY_CUTOFF     1.0000000000000000E-10
       GRADIENT_CUTOFF     1.0000000000000000E-10
       TAU_CUTOFF     1.0000000000000000E-10
       &XC_FUNCTIONAL  NO_SHORTCUT
         &PBE  T
         &END PBE
       &END XC_FUNCTIONAL
     &END XC
   &END DFT
   &SUBSYS
     &CELL
       A     1.6000000000000000E+01    0.0000000000000000E+00    0.0000000000000000E+00
       B     0.0000000000000000E+00    1.7000000000000000E+01    0.0000000000000000E+00
       C     0.0000000000000000E+00    0.0000000000000000E+00    1.5000000000000002E+01
       PERIODIC  NONE
       MULTIPLE_UNIT_CELL  1 1 1
     &END CELL
     &COORD
C    2.6579148790117029E+00    6.8154190065343190E-01    8.2623979400586689E-01
C    1.7071967754560762E+00   -4.4830523156110769E-01    2.0460041376701427E-01
C    2.0646151306201190E+00   -8.5456938122428394E-01   -1.2997873159026927E+00
O    9.1882684520468483E-01   -2.0489088872628314E-01   -2.2377549853439183E+00
C    1.2527012316738828E+00    1.2639632218257773E+00   -2.1554152901684729E+00
C    5.0737828711974153E-01    2.2935456846438607E+00   -1.3432680795229617E+00
C    9.0420110673946308E-01    3.7541801473292078E+00   -1.3736331658338863E+00
C    2.0227492769866906E+00    4.2349832763479967E+00   -2.2851750057272286E+00
C    2.7416399198173251E+00    3.1851787887107808E+00   -3.0139012530765878E+00
C    2.3983919971453846E+00    1.7468954965779138E+00   -2.9337437208800927E+00
C    3.1280517979505631E+00    1.0522519869249365E+00   -4.0910173119908562E+00
N    2.8194897753687385E+00   -3.4507408021448222E-01   -4.4701732119495228E+00
C    3.6469844229837709E+00   -7.7948608833714428E-01   -5.6157065895519702E+00
C    3.1194975442320980E+00   -1.8744831431654521E+00   -6.5439157604985159E+00
C    1.7482769514419469E+00   -2.3741132529592104E+00   -6.6227188497467724E+00
C    1.4861103533291686E+00   -3.3487330366699180E+00   -7.7578429476959396E+00
C    2.5899730267432020E+00   -3.7054533972087440E+00   -8.7263259471764840E+00
C    3.9781949549715661E+00   -3.1235260670717779E+00   -8.6314238658241269E+00
C    4.1833876869566113E+00   -2.1846094437267523E+00   -7.5243498413468339E+00
C    5.3512544564090048E+00   -1.2385385173556416E+00   -7.2320581769734886E+00
N    4.9784356518866044E+00   -3.6339497111980046E-01   -6.0840818627011268E+00
Dy    6.1633215845068019E+00    1.2532434626983504E+00   -5.1489892577490695E+00
N    3.9649412896588383E+00    2.0567418983789061E+00   -4.8594248362652461E+00
C    3.7532492653850298E+00    3.3676147801091192E+00   -4.1689985017321982E+00
N    4.2355645781342108E+00    4.7252433329646699E+00   -4.4954541574125759E+00
C    5.4868611572843076E+00    4.7580165386268165E+00   -5.2635738989686445E+00
N    6.5164835644247949E+00    3.6609247408353012E+00   -5.2823500241220138E+00
C    7.5892280607678266E+00    4.1277392789979981E+00   -6.2050234952595185E+00
N    8.6673815998485146E+00    3.4803737330669997E+00   -6.9998168162158594E+00
C    8.4495418734326133E+00    2.0747012327388608E+00   -7.3841372561710656E+00
N    7.3974908765468701E+00    1.1018144720191407E+00   -6.9776920418139365E+00
C    7.3648972357626397E+00   -1.5612563401432611E-02   -7.9395445548690233E+00
N    6.5192890725532706E+00   -1.2226557429348093E+00   -8.1280654110747825E+00
C    8.5082220108798730E+00    2.0038773691317996E-01   -8.9370605373916572E+00
C    9.2051812453571227E+00    1.4535785180464331E+00   -8.5684508425463690E+00
C    1.0158414988759654E+01    2.0895494740198384E+00   -9.4891439799505264E+00
C    1.0541849890552994E+01    1.2676873653521068E+00   -1.0717869710127275E+01
C    9.8559070959943043E+00   -4.4211713386300325E-02   -1.1044687762730307E+01
C    8.7435844229772695E+00   -5.8353405694160854E-01   -1.0153883559428618E+01
O    1.0588794470809853E+01    3.4779820248887030E+00   -9.1819244478431479E+00
C    1.2022630142002587E+01    3.4239205416751117E+00   -8.4639818047571023E+00
C    1.1844740082917744E+01    3.1595381579698696E+00   -6.8958614142845178E+00
C    1.1424240934778100E+01    4.5110987656038013E+00   -6.1667486322185754E+00
C    1.2935632427805739E+01    2.3135579842788658E+00   -9.1317511337180051E+00
C    1.3457584225570519E+01    2.8150991835219870E+00   -1.0553901622420558E+01
C    7.3075144148911724E+00    5.6200445918410953E+00   -6.5605608519878942E+00
C    5.9809008136565671E+00    6.0094968708635141E+00   -6.0237223150019839E+00
C    5.4306992521718422E+00    7.4065425966370402E+00   -6.0733537614891944E+00
C    6.1546146249918419E+00    8.6236041945220965E+00   -6.7394617732512794E+00
C    7.5244789308795736E+00    8.0901150076399500E+00   -7.2945710434981539E+00
C    8.1080920957765183E+00    6.6438361507023060E+00   -7.2438261351433209E+00
O    4.0809059717114504E+00    7.5310830126747819E+00   -5.3957863346689638E+00
C    3.1034236880107771E+00    7.1082736736367931E+00   -6.6126084631008890E+00
C    1.6824602560677424E+00    7.3889216585086217E+00   -5.9820687819473202E+00
C    1.4234328542828667E+00    6.5262133000157414E+00   -4.6633677079177174E+00
C    3.3749809011260168E+00    8.0929879269750113E+00   -7.8667183048306342E+00
C    4.1807298004297815E+00    7.3262731075554495E+00   -9.0452629050704481E+00
O    8.2836728111156184E+00    1.9074789639560290E+00   -4.5501624944884158E+00
C    9.4871701005813147E+00    1.2103916427936126E+00   -4.6838564705537715E+00
N    1.0229088966401328E+01    9.3087998299737518E-01   -3.4678836709849414E+00
C    9.5707149059229479E+00    1.2394801665342765E+00   -2.0776990208848685E+00
C    1.1728197965531782E+01    5.3500582591070389E-01   -3.6083713770406587E+00
O    5.1957791462992597E+00    2.2952104203699593E+00   -7.0774178652895685E+00
C    3.9528071804446103E+00    2.1139078317478575E+00   -7.6809640381610036E+00
N    3.8796373480590121E+00    2.4364780518174332E+00   -9.1004017431181197E+00
C    5.2128709535979025E+00    2.8746887709167184E+00   -9.7799481059406954E+00
C    2.5989973474059043E+00    2.2373260313674770E+00   -9.9429372629621415E+00
N    6.1436029148368991E+00    1.8959387953585982E+00   -2.9273828217885702E+00
C    5.9007500313307775E+00    7.1329516552601824E-01   -2.1353013235697889E+00
C    6.1270585855654476E+00   -6.6109519318198429E-01   -2.8665900361365786E+00
N    6.9136556125025468E+00   -5.6070473619582328E-01   -4.0884568263657357E+00
C    7.3714366876064421E+00   -1.7604024611189939E+00   -4.7648768146002380E+00
C    7.1351944168931425E+00   -3.1281864173628549E+00   -4.1589567349609435E+00
C    6.2714329338233323E+00   -3.2235942638270489E+00   -2.9041104192189571E+00
C    5.7287983921853307E+00   -1.9599085789900477E+00   -2.2716874105562863E+00
C    5.7242558439004654E+00    7.6095013570940717E-01   -6.7127441815371014E-01
C    5.7888038032215476E+00    2.1051269045779293E+00    6.6364399855557803E-03
C    6.1172507058615277E+00    3.3479917635191931E+00   -8.0737423253698704E-01
C    6.2748488739922763E+00    3.1884327457439015E+00   -2.3016992806991365E+00
O    5.0554614387381802E+00   -3.3650804998898360E+00   -9.6250315050320996E+00
C    5.9491396506371101E+00   -4.5309572209463180E+00   -8.9655898537932419E+00
C    5.1587673896218451E+00   -5.8535495971530720E+00   -8.4636888256967726E+00
C    4.9711866008449013E+00   -6.0953075042861053E+00   -6.8593944450790030E+00
C    6.8526988526403443E+00   -5.0193258177156865E+00   -1.0173696694403500E+01
C    7.7999183948231039E+00   -3.9120285482326795E+00   -1.0823025310516027E+01
C    1.8573129944018802E+00   -2.4084190631910731E+00   -1.4773985342802538E+00
C    2.1009385444815742E+00   -2.8804273654066948E+00   -2.9813058297149984E+00
H    2.5953041849891734E+00    6.2175804823386427E-01    2.0775562620334522E+00
H    3.8428401458042214E+00    5.1692566989102018E-01    4.9588982055650771E-01
H    2.3593853481830269E+00    1.8330758512141276E+00    4.3760254281260574E-01
H    1.7471825458415413E+00   -1.5015377080818160E+00    8.6274263827957598E-01
H    5.1366293210754610E-01   -9.8957038060491026E-02    2.3500459634986803E-01
H    3.2058310337446745E+00   -4.4662417036673902E-01   -1.6835842486365351E+00
H   -3.8006590935765983E-01    1.8572269841490492E+00   -6.0338098760738190E-01
H    2.9805455182726454E-01    4.5808666636183970E+00   -6.7702443905174325E-01
H    2.4258321998282026E+00    5.4023491792465466E+00   -2.5381980791891254E+00
H    9.8971755563454911E-01   -1.9142302469677828E+00   -5.7287698375108995E+00
H    3.4648464575682758E-01   -3.8036141461528055E+00   -7.9296026657959748E+00
H    2.3980824474858227E+00   -4.4662028887026368E+00   -9.6791843959489068E+00
H    1.1384272319343030E+01    1.7732842971442868E+00   -1.1461840218006248E+01
H    1.0126774210268255E+01   -6.6831092822850924E-01   -1.2084071422822344E+01
H    7.9966184991872478E+00   -1.5871788697691243E+00   -1.0271230072425407E+01
H    1.2500890500489806E+01    4.5838213230806915E+00   -8.6579871126957269E+00
H    1.1039844937855818E+01    2.2308685210006201E+00   -6.6969806723000618E+00
H    1.2969277092424065E+01    2.7777832835489171E+00   -6.5113790734668981E+00
H    1.1475695010824017E+01    4.3985772830699892E+00   -4.9273050040886117E+00
H    1.2215435621040950E+01    5.4161799234717058E+00   -6.5154512715347552E+00
H    1.0264410919574862E+01    4.8063346045578479E+00   -6.5025873532408589E+00
H    1.3865028892080387E+01    2.1808770920967913E+00   -8.3198038244382726E+00
H    1.2380183330407556E+01    1.2025934127103886E+00   -9.1698031677701657E+00
H    1.3795681383015056E+01    1.8728647645520395E+00   -1.1295478007636122E+01
H    1.2602695599327925E+01    3.5347127462336920E+00   -1.1114327371756927E+01
H    1.4455538344217937E+01    3.5499573257233035E+00   -1.0381105661384128E+01
H    5.6955273084465912E+00    9.8832626978695846E+00   -6.8006520367441938E+00
H    8.3912878581395418E+00    8.8627871376952303E+00   -7.7559475346329370E+00
H    9.1848523979668233E+00    6.1037809694723117E+00   -7.6919517331242195E+00
H    3.2694466453302877E+00    5.8675127029635421E+00   -6.8568570704295970E+00
H    1.7347769673295592E+00    8.6085354677056305E+00   -5.7102088278556282E+00
H    7.8271896229580473E-01    7.2500667548767757E+00   -6.8270439804638903E+00
H    1.5638875461201405E+00    5.2951956114982757E+00   -4.8574735105147706E+00
H    2.2940255880355380E+00    6.8284944574268174E+00   -3.8200444810284857E+00
H    2.9615392632922682E-01    6.7806129389527863E+00   -4.1946289340399598E+00
H    2.2006513779325556E+00    8.2639181172698670E+00   -8.2670599136507867E+00
H    3.8809532799975544E+00    9.2265686525329347E+00   -7.4892647802673826E+00
H    4.0649297349876043E+00    6.0721761805424856E+00   -9.0025159182715218E+00
H    3.7043458467655959E+00    7.6546310653146525E+00   -1.0158644050538618E+01
H    5.4075952261611828E+00    7.5710891926695814E+00   -9.0379170906378672E+00
H    1.0077645824176352E+01    7.8777856891533227E-01   -5.7472864325944046E+00
H    9.3355946465302626E+00    1.2752402168935095E-01   -1.5132790645873218E+00
H    1.0396894632058340E+01    1.9151510336241790E+00   -1.4032086850325938E+00
H    8.4974328764400546E+00    1.8636322421908726E+00   -2.2837346963365022E+00
H    1.2164458524037993E+01    4.0710346457240371E-01   -2.4396110432992488E+00
H    1.1779720960278000E+01   -5.6229589695121807E-01   -4.2326799782352440E+00
H    1.2327476603739257E+01    1.4619236825744941E+00   -4.2340971427798619E+00
H    2.8271637654701425E+00    1.7182517553779879E+00   -7.1857925837220282E+00
H    6.0231093181740381E+00    3.1034243927103469E+00   -8.8306094601251921E+00
H    5.6474439761351531E+00    1.9001111842518790E+00   -1.0465734818111532E+01
H    4.9563042579156393E+00    3.8880806185852950E+00   -1.0485748410565522E+01
H    1.6553037976273370E+00    2.0775327854973407E+00   -9.1218658261460845E+00
H    2.4309107416135030E+00    3.2783674068174111E+00   -1.0638999652801767E+01
H    2.7535973273128014E+00    1.2051035244701864E+00   -1.0669707711230856E+01
H    7.9404315534550225E+00   -1.5646339304298882E+00   -5.8805297704692752E+00
H    7.6846709183637998E+00   -4.1284069420093621E+00   -4.6575150736438129E+00
H    6.0555330598326638E+00   -4.3343822174831557E+00   -2.3776396337127315E+00
H    5.0471128978783657E+00   -1.9414410742849870E+00   -1.2402128804889585E+00
H    5.6587627592031557E+00   -3.2426664253690574E-01   -8.3990154603205469E-02
H    5.6512068473673569E+00    2.1874372979117189E+00    1.2367236822425935E+00
H    6.2233935550727457E+00    4.4884044556593636E+00   -3.1691345139491661E-01
H    6.5808201988937123E+00    4.1116142469005332E+00   -3.1063837736281479E+00
H    6.6958771213742150E+00   -3.9771860642199459E+00   -8.0940353216854390E+00
H    4.0959793617771654E+00   -5.9210385002073584E+00   -9.0963949895646063E+00
H    5.8670037187414117E+00   -6.8307348689711205E+00   -8.7277613283253732E+00
H    4.7953819115856451E+00   -7.3717961654702320E+00   -6.5722708349940078E+00
H    5.7834676718726357E+00   -5.2934084438325693E+00   -6.2551086378087284E+00
H    3.9309677637331166E+00   -5.3672562475127812E+00   -6.5638996442212285E+00
H    7.5261569223099221E+00   -5.9798124585641235E+00   -9.7711336607686370E+00
H    6.0746536886754496E+00   -5.4868119914327114E+00   -1.1031346555281646E+01
H    8.4033280742901013E+00   -3.3175155482881014E+00   -9.9104278110106616E+00
H    8.6636454775561020E+00   -4.4453158340806631E+00   -1.1548042638885468E+01
H    7.1571516391221266E+00   -3.0836333849184685E+00   -1.1508469975792709E+01
H    2.5452612269505663E+00   -3.0357839521077952E+00   -6.5149205840090985E-01
H    6.7062930146258282E-01   -2.6122964294339766E+00   -1.1325391776932430E+00
H    2.0607279677081518E+00   -4.1227625511647661E+00   -3.0600305653863966E+00
H    1.2185938954068354E+00   -2.3938148003138613E+00   -3.7184741072466654E+00
H    3.1748886032430961E+00   -2.4220557526120805E+00   -3.4270890256216724E+00
     &END COORD
     &KIND Dy
       BASIS_SET SZV-MOLOPT-SR-GTH
       POTENTIAL GTH-PBE-q20
       &POTENTIAL
 4 6 0 10
  0.5102968700000000E+00 2  0.1767093508000000E+02 -0.8678777000000000E+00
 4
  0.4421234800000000E+00 2 -0.2715733840000000E+01  0.4017884260000000E+01
 -0.5187066270000000E+01
  0.4501723000000000E+00 2 -0.2773475350000000E+01  0.2201152450000000E+01
 -0.2604438700000000E+01
  0.4711651400000000E+00 1 -0.7522756100000000E+00
  0.2618074100000000E+00 1 -0.2424856414000000E+02
         # Potential name:  GTH-PBE-Q20  for symbol:  DY
         # Potential read from the potential filename: ../POTENTIAL
       &END POTENTIAL
     &END KIND
     &KIND Tb
       BASIS_SET SZV-MOLOPT-SR-GTH
       POTENTIAL GTH-PBE-q19
     &END KIND
     &KIND Ho
       BASIS_SET SZV-MOLOPT-SR-GTH
       POTENTIAL GTH-PBE-q21
     &END KIND
     &KIND Gd
       BASIS_SET SZV-MOLOPT-SR-GTH
       POTENTIAL GTH-PBE-q18
     &END KIND
     &KIND Lu
       BASIS_SET SZV-MOLOPT-SR-GTH
       POTENTIAL GTH-PBE-q25
     &END KIND
     &KIND Pm
       BASIS_SET SZV-MOLOPT-SR-GTH
       POTENTIAL GTH-PBE-q15
     &END KIND
     &KIND Tm
       BASIS_SET SZV-MOLOPT-SR-GTH
       POTENTIAL GTH-PBE-q23
     &END KIND
     &KIND F
       BASIS_SET SZV-GTH-PADE
       POTENTIAL GTH-PBE-q7
     &END KIND
     &KIND S
       BASIS_SET SZV-GTH-PADE
       POTENTIAL GTH-PBE-q6
     &END KIND
     &KIND Na
       BASIS_SET SZV-GTH-PADE
       POTENTIAL GTH-PBE-q9
     &END KIND
     &KIND B
       BASIS_SET SZV-GTH-PADE
       POTENTIAL GTH-PBE-q3
     &END KIND
     &KIND Cl
       BASIS_SET SZV-GTH-PADE
       POTENTIAL GTH-PBE-q7
     &END KIND
     &KIND H
       BASIS_SET SZV-GTH-PADE
       POTENTIAL GTH-PBE-q1
       &POTENTIAL
 1
  0.2000000000000000E+00 2 -0.4178900440000000E+01  0.7244633100000000E+00
 0
         # Potential name:  GTH-PBE-Q1  for symbol:  H
         # Potential read from the potential filename: ../POTENTIAL
       &END POTENTIAL
     &END KIND
     &KIND N
       BASIS_SET SZV-GTH-PADE
       POTENTIAL GTH-PBE-q5
       &POTENTIAL
 2 3
  0.2837905100000000E+00 2 -0.1241522559000000E+02  0.1868095920000000E+01
 2
  0.2554050000000000E+00 1  0.1363026257000000E+02
  0.2454945300000000E+00 0
         # Potential name:  GTH-PBE-Q5  for symbol:  N
         # Potential read from the potential filename: ../POTENTIAL
       &END POTENTIAL
     &END KIND
     &KIND O
       BASIS_SET SZV-GTH-PADE
       POTENTIAL GTH-PBE-q6
       &POTENTIAL
 2 4
  0.2445543000000000E+00 2 -0.1666721480000000E+02  0.2487311320000000E+01
 2
  0.2209559200000000E+00 1  0.1833745811000000E+02
  0.2113324700000000E+00 0
         # Potential name:  GTH-PBE-Q6  for symbol:  O
         # Potential read from the potential filename: ../POTENTIAL
       &END POTENTIAL
     &END KIND
     &KIND C
       BASIS_SET SZV-GTH-PADE
       POTENTIAL GTH-PBE-q4
       &POTENTIAL
 2 2
  0.3384712400000000E+00 2 -0.8803673979999999E+01  0.1339210850000000E+01
 2
  0.3025757500000000E+00 1  0.9622486650000001E+01
  0.2915069400000000E+00 0
         # Potential name:  GTH-PBE-Q4  for symbol:  C
         # Potential read from the potential filename: ../POTENTIAL
       &END POTENTIAL
     &END KIND
     &TOPOLOGY
       COORD_FILE_NAME ../../Dy_L9_L25_DMF_DMF.xyz
       COORD_FILE_FORMAT  XYZ
       NUMBER_OF_ATOMS  165
       MULTIPLE_UNIT_CELL  1 1 1
     &END TOPOLOGY
   &END SUBSYS
 &END FORCE_EVAL
