 # Version information for this restart file 
 # current date 2023-03-25 19:05:37.584
 # current working dir /mnt/scratch2/users/40265864/MSc_ML_MM/ln_replacements/xyz/Dy_L9_L25_DMF_DMF/geometry_optimisation/run-0
 # Program compiled at                              Mon 24 Oct 18:14:20 BST 2022
 # Program compiled on                          login1.pri.kelvin2.alces.network
 # Program compiled for                                                    local
 # Source code revision number                                         svn:17462
 &GLOBAL
   PRINT_LEVEL  LOW
   PROJECT_NAME molecule_name
   RUN_TYPE  GEO_OPT
 &END GLOBAL
 &MOTION
   &GEO_OPT
     OPTIMIZER  BFGS
     MAX_DR     5.0000000000000000E-01
     MAX_FORCE     5.0000000000000000E-01
     RMS_DR     5.0000000000000003E-02
     RMS_FORCE     5.0000000000000003E-02
     STEP_START_VAL  3
   &END GEO_OPT
 &END MOTION
 &FORCE_EVAL
   METHOD  QS
   &DFT
     BASIS_SET_FILE_NAME ../BASIS_MOLOPT_UCL
     BASIS_SET_FILE_NAME BASIS_SET
     POTENTIAL_FILE_NAME ../POTENTIAL
     UKS  T
     MULTIPLICITY  0
     CHARGE  3
     &SCF
       MAX_SCF  50
       EPS_SCF     5.0000000000000002E-05
       SCF_GUESS  RESTART
       &OT  T
         MINIMIZER  DIIS
         PRECONDITIONER  FULL_KINETIC
       &END OT
       &OUTER_SCF  T
         EPS_SCF     5.0000000000000002E-05
         MAX_SCF  20
       &END OUTER_SCF
     &END SCF
     &MGRID
       NGRIDS  2
       CUTOFF     4.0000000000000000E+02
       REL_CUTOFF     5.0000000000000000E+01
     &END MGRID
     &XC
       DENSITY_CUTOFF     1.0000000000000000E-10
       GRADIENT_CUTOFF     1.0000000000000000E-10
       TAU_CUTOFF     1.0000000000000000E-10
       &XC_FUNCTIONAL  NO_SHORTCUT
         &PBE  T
         &END PBE
       &END XC_FUNCTIONAL
     &END XC
   &END DFT
   &SUBSYS
     &CELL
       A     1.6000000000000000E+01    0.0000000000000000E+00    0.0000000000000000E+00
       B     0.0000000000000000E+00    1.7000000000000000E+01    0.0000000000000000E+00
       C     0.0000000000000000E+00    0.0000000000000000E+00    1.5000000000000002E+01
       PERIODIC  NONE
       MULTIPLE_UNIT_CELL  1 1 1
     &END CELL
     &COORD
C    2.6621738128609471E+00    6.7532306465437775E-01    8.2893501776494094E-01
C    1.7113416054150923E+00   -4.4226270081513147E-01    2.0358314699619232E-01
C    2.0595435783506599E+00   -8.5039339161890548E-01   -1.3008790855430783E+00
O    9.5895316870991132E-01   -2.1472231935909697E-01   -2.2604519569173114E+00
C    1.2647805308278794E+00    1.2426175893386997E+00   -2.2082471434899218E+00
C    5.5618021638060178E-01    2.2773005982498482E+00   -1.3869190793030797E+00
C    9.4986361336819070E-01    3.7300084260869371E+00   -1.4206917135095027E+00
C    2.0493165045624475E+00    4.2221573829796792E+00   -2.3315740379038439E+00
C    2.7528217285853458E+00    3.1652604724176676E+00   -3.0565252762392769E+00
C    2.4118652252638282E+00    1.7348860157459851E+00   -2.9773962621093015E+00
C    3.1522941025564664E+00    1.0464556691686762E+00   -4.1134431676337737E+00
N    2.8270310804805869E+00   -3.3178306245143030E-01   -4.4915797411144558E+00
C    3.6630645390841314E+00   -7.4184031600442957E-01   -5.6220483937226531E+00
C    3.1343400957591210E+00   -1.8105326593056690E+00   -6.5578597932937095E+00
C    1.7744283118863349E+00   -2.3237511223889720E+00   -6.6138353723966157E+00
C    1.5325927656407770E+00   -3.2952343137731321E+00   -7.7403188839124732E+00
C    2.6357727492747509E+00   -3.6606398723351057E+00   -8.6942946107993020E+00
C    4.0110759579101218E+00   -3.0610258676087501E+00   -8.6386826933552268E+00
C    4.1986257029518432E+00   -2.1288196046256451E+00   -7.5262971800579335E+00
C    5.3574238619039836E+00   -1.1944747692732378E+00   -7.2269358434540623E+00
N    4.9904481527020303E+00   -3.4520555402164149E-01   -6.0780198052747441E+00
Dy    6.1572726402868119E+00    1.2974398963421221E+00   -5.1725731802237362E+00
N    4.0021764131846762E+00    2.0379410130436182E+00   -4.8438070009624461E+00
C    3.7661234146767786E+00    3.3374809031548685E+00   -4.1907264793059840E+00
N    4.2483483531316679E+00    4.6863603269963026E+00   -4.4864352782159163E+00
C    5.4726565375296161E+00    4.6896674239378440E+00   -5.2686448261965584E+00
N    6.5145866524721878E+00    3.6211020459572487E+00   -5.2834717962506446E+00
C    7.5783565670336985E+00    4.0726086566790016E+00   -6.1999763881988219E+00
N    8.6572322223270977E+00    3.4616519183201802E+00   -6.9939676336579701E+00
C    8.4149001393378633E+00    2.0758698111925953E+00   -7.3740794693091845E+00
N    7.3578598836067695E+00    1.1301381522769991E+00   -6.9868393835862008E+00
C    7.3165648713914129E+00    2.4126254577940418E-02   -7.9373842905470955E+00
N    6.5066414111302135E+00   -1.1896414566327311E+00   -8.1216403035108122E+00
C    8.4543496828880507E+00    2.2391777983466774E-01   -8.9213172540553494E+00
C    9.1619388329198195E+00    1.4598609289198952E+00   -8.5454565183040980E+00
C    1.0120708782202456E+01    2.1048730292871185E+00   -9.4518585360022023E+00
C    1.0488956137804470E+01    1.2692829879642122E+00   -1.0663372868893010E+01
C    9.8052133579627068E+00   -3.3613719715719081E-02   -1.0994385106764408E+01
C    8.7011459360703096E+00   -5.7846676812451980E-01   -1.0115366575445996E+01
O    1.0553044962774848E+01    3.4762431538280225E+00   -9.1201133559009087E+00
C    1.1992187429372247E+01    3.4082706543762140E+00   -8.4689429772770897E+00
C    1.1850146820240250E+01    3.1710201427658156E+00   -6.8981116750704921E+00
C    1.1427904779194098E+01    4.5172441705150090E+00   -6.1745763763169474E+00
C    1.2932935442858925E+01    2.3234334956008467E+00   -9.1374967972558814E+00
C    1.3465669947428923E+01    2.8224671717881304E+00   -1.0548799593261441E+01
C    7.3039082625971341E+00    5.5490437896199811E+00   -6.5426847750345383E+00
C    5.9719733276173139E+00    5.9186851750106522E+00   -6.0238342651178112E+00
C    5.4347161582167223E+00    7.3013800003532703E+00   -6.0429630697755217E+00
C    6.2091675707215988E+00    8.4500729354990849E+00   -6.6965274093851708E+00
C    7.5565454153722627E+00    7.9676683132631023E+00   -7.2629049223116828E+00
C    8.1245405599374454E+00    6.5405142841886148E+00   -7.2335211220904281E+00
O    4.0890053927219148E+00    7.4731078307252679E+00   -5.4203359378143761E+00
C    3.1043665777655112E+00    7.0846202303713950E+00   -6.6115118880866515E+00
C    1.6931382573833387E+00    7.3823519780451710E+00   -5.9775632287608760E+00
C    1.4376500305165105E+00    6.5297463629191945E+00   -4.6599793854668548E+00
C    3.3536434729628177E+00    8.0350510644730875E+00   -7.8876793242035159E+00
C    4.1660622522130808E+00    7.3025152807235836E+00   -9.0656411101337842E+00
O    8.2650518258211285E+00    1.8493856657926628E+00   -4.5482036821924643E+00
C    9.4722341159565886E+00    1.1671510103177405E+00   -4.6744720934923558E+00
N    1.0222222288930189E+01    9.4066530340634591E-01   -3.4603392289447359E+00
C    9.5695368125375389E+00    1.2442183779218567E+00   -2.0800809715099056E+00
C    1.1708643313742286E+01    5.4755521820201691E-01   -3.6116341029641914E+00
O    5.1780063496392561E+00    2.2579091593328995E+00   -7.0881625285305372E+00
C    3.9301110673362190E+00    2.1030485403386527E+00   -7.6796002890673334E+00
N    3.8916823577140982E+00    2.4341083079733181E+00   -9.0918329980467867E+00
C    5.2156314222000262E+00    2.8740279726694906E+00   -9.7638885905705344E+00
C    2.6144357667729166E+00    2.2408678193718172E+00   -9.9180647738097711E+00
N    6.1563206969651771E+00    1.8881125829751451E+00   -2.9503104856870568E+00
C    5.9224379280328181E+00    7.1402982998403497E-01   -2.1640722465436477E+00
C    6.1313657834322832E+00   -6.4383188027970439E-01   -2.8917142981979751E+00
N    6.8795078244296084E+00   -5.3719136953877100E-01   -4.1199478725915277E+00
C    7.3759504449019913E+00   -1.7203166388058486E+00   -4.7682367424821104E+00
C    7.1246438458671477E+00   -3.0742316875380138E+00   -4.1629156322893781E+00
C    6.2881791741579125E+00   -3.1725515445652350E+00   -2.9003619069844064E+00
C    5.7262578617169115E+00   -1.9268328645077042E+00   -2.2782505508025821E+00
C    5.7296140918881688E+00    7.4159093207973892E-01   -7.0526424051803649E-01
C    5.8147823039115911E+00    2.0803577921068519E+00   -4.2979438806412022E-02
C    6.1251606897918736E+00    3.3168557076956011E+00   -8.5768289296992439E-01
C    6.3152689068044126E+00    3.1746420099885651E+00   -2.3376918738607708E+00
O    5.0846116460502069E+00   -3.3260398857548346E+00   -9.6201240986246788E+00
C    5.9632110696820915E+00   -4.4989663077567332E+00   -8.9814118237131453E+00
C    5.1533657180161256E+00   -5.7847855683762353E+00   -8.4508578298604267E+00
C    4.9066538635412913E+00   -5.8985370717855155E+00   -6.8661606347482866E+00
C    6.8543305755042692E+00   -5.0146426359456688E+00   -1.0177707080298731E+01
C    7.7923657087664360E+00   -3.9069081446078977E+00   -1.0824487332705480E+01
C    1.8500378128800099E+00   -2.3986518555703111E+00   -1.4834500617579063E+00
C    2.0880624878596010E+00   -2.8629780863664882E+00   -2.9844683363642521E+00
H    2.5839679403230540E+00    5.9209360328206995E-01    2.0705633100880458E+00
H    3.8388743519761368E+00    4.9925780053535807E-01    4.9749223744001597E-01
H    2.3427406091486360E+00    1.8157621359544605E+00    4.5497081971576903E-01
H    1.7535289316653659E+00   -1.4955059525065821E+00    8.5418681676743535E-01
H    5.2361417876094352E-01   -9.0082632672380245E-02    2.4579252544993707E-01
H    3.2071915164558380E+00   -4.6041324673552059E-01   -1.6412920087251630E+00
H   -3.2643439224664383E-01    1.8359765312639813E+00   -6.5649104309090656E-01
H    3.4668081937941159E-01    4.5479993293101089E+00   -7.3088690195375527E-01
H    2.4783094962820402E+00    5.3802152856037475E+00   -2.5452597550916440E+00
H    1.0135010687437818E+00   -1.8810180161777230E+00   -5.7205149537206754E+00
H    4.0354254872934991E-01   -3.7533313282514547E+00   -7.8989741940331344E+00
H    2.4310335058914965E+00   -4.4101348816832058E+00   -9.6445311128809834E+00
H    1.1320039278533427E+01    1.7800546986001695E+00   -1.1405938805775556E+01
H    1.0083499729128304E+01   -6.5842721520403202E-01   -1.2017995456797967E+01
H    7.9790050105835322E+00   -1.5953468363374186E+00   -1.0221785930756829E+01
H    1.2458139903569313E+01    4.5595366727818343E+00   -8.6792542288896719E+00
H    1.1055062700172831E+01    2.2450181609635891E+00   -6.6726049246074988E+00
H    1.2974723516199312E+01    2.7925923699500625E+00   -6.5275200918969896E+00
H    1.1494586223845252E+01    4.3734276153932816E+00   -4.9461718863514834E+00
H    1.2232719957867834E+01    5.4015551091626950E+00   -6.5187706413458262E+00
H    1.0272208210443885E+01    4.7997425560023625E+00   -6.5121909342215867E+00
H    1.3856878752256202E+01    2.2004213485619530E+00   -8.3198480565416837E+00
H    1.2412650711696203E+01    1.1988666604510607E+00   -9.1827776049728254E+00
H    1.3792803737249669E+01    1.8689618308811886E+00   -1.1267260299272387E+01
H    1.2608276222946094E+01    3.5373940817665108E+00   -1.1090920391506179E+01
H    1.4464850664614840E+01    3.5393067196734056E+00   -1.0360214840480031E+01
H    5.6445614992313375E+00    9.6332626978695846E+00   -6.6727662094499420E+00
H    8.3721670552163232E+00    8.7779994057141018E+00   -7.7098280422550420E+00
H    9.1889772642868728E+00    6.0231675754458625E+00   -7.6955476053732275E+00
H    3.2515075020932995E+00    5.8597560921110352E+00   -6.8818784855443962E+00
H    1.7760522981001916E+00    8.5947068682709098E+00   -5.7062086902129687E+00
H    8.0372370145125205E-01    7.2489293100121204E+00   -6.8241490321787701E+00
H    1.5597621262449668E+00    5.3117778289099711E+00   -4.8803658382426329E+00
H    2.2910569893238084E+00    6.8291955820879187E+00   -3.8100829934120086E+00
H    3.0878651558186393E-01    6.8100077760855333E+00   -4.2335459281638537E+00
H    2.1844069709406631E+00    8.2144573438705333E+00   -8.2767298317219069E+00
H    3.8363890617029899E+00    9.1677539711230924E+00   -7.5476308645660177E+00
H    4.0571847606681226E+00    6.0582150099857071E+00   -9.0269653195501718E+00
H    3.6780228037950780E+00    7.6483416105964306E+00   -1.0160327682181006E+01
H    5.3734473709408874E+00    7.5856675844951482E+00   -9.0437260085120244E+00
H    1.0055885913929261E+01    7.7784798076280792E-01   -5.7391245148190393E+00
H    9.3509645012502176E+00    1.3087999409360518E-01   -1.5297827491162699E+00
H    1.0407840817602548E+01    1.9003033319440312E+00   -1.4146566545547150E+00
H    8.5035281831492533E+00    1.8684058729430704E+00   -2.2706034292318051E+00
H    1.2133415809152186E+01    4.1792963930564131E-01   -2.4447684829755141E+00
H    1.1735644241126804E+01   -5.4565128836869059E-01   -4.2272606856991750E+00
H    1.2297655981528472E+01    1.4712827620203328E+00   -4.2324313133350620E+00
H    2.8080133585575355E+00    1.7348609877854440E+00   -7.1889308709221913E+00
H    6.0350610170475996E+00    3.1160119284546499E+00   -8.8402868650244386E+00
H    5.6280586450712731E+00    1.9064148448566398E+00   -1.0458360859558109E+01
H    4.9357552428494724E+00    3.8701650129024414E+00   -1.0472928078309504E+01
H    1.6866315109303640E+00    2.0842201442088171E+00   -9.0922933842330647E+00
H    2.4665406184017793E+00    3.2751040881029372E+00   -1.0612518504405328E+01
H    2.7850453709809067E+00    1.2116494620379521E+00   -1.0629844141324625E+01
H    7.9518093150652325E+00   -1.5284677980370338E+00   -5.8734677354407259E+00
H    7.6841257419772626E+00   -4.0645778052701385E+00   -4.6468124787545673E+00
H    6.0522892835727093E+00   -4.2713766929713026E+00   -2.3818335079212751E+00
H    5.0734634134910745E+00   -1.9005198151739502E+00   -1.2315640660349716E+00
H    5.6658955437113088E+00   -3.3995453091418321E-01   -1.1403191354780264E-01
H    5.6575033766772354E+00    2.1586496864304188E+00    1.1757968674122772E+00
H    6.2149221699059005E+00    4.4471404641441818E+00   -3.6868176036422140E-01
H    6.5972091367726282E+00    4.1011449169752687E+00   -3.1361038409765674E+00
H    6.6957849829280223E+00   -3.9803652744352309E+00   -8.0959963372412602E+00
H    4.0989110227136933E+00   -5.8980505642194672E+00   -9.0828054014219362E+00
H    5.8590597037779331E+00   -6.7667772857900053E+00   -8.7049193449907758E+00
H    4.8965455528203705E+00   -7.1545713033614877E+00   -6.5448760201367833E+00
H    5.7648982027784861E+00   -5.1889659763825886E+00   -6.2704970773876170E+00
H    3.8687739234010587E+00   -5.2108975866966718E+00   -6.6022336876928298E+00
H    7.5157144712795949E+00   -5.9715647865231336E+00   -9.7664895958667817E+00
H    6.0746360181619687E+00   -5.4658293768872328E+00   -1.1033030106109988E+01
H    8.3922879113508628E+00   -3.3207060864215650E+00   -9.9143136861418455E+00
H    8.6439557886894516E+00   -4.4701595966158072E+00   -1.1529835557555080E+01
H    7.1511078562619526E+00   -3.1029425425485782E+00   -1.1521662002432214E+01
H    2.5385968437072908E+00   -3.0141791976503094E+00   -6.5932607128120713E-01
H    6.6379261096399078E-01   -2.5832925305900094E+00   -1.1477575832062714E+00
H    2.0489151123178400E+00   -4.1002509010999795E+00   -3.0167725455574761E+00
H    1.2016969680627412E+00   -2.4000858965899710E+00   -3.7185725570716466E+00
H    3.1652126033086621E+00   -2.4145558013873472E+00   -3.4093913762453147E+00
     &END COORD
     &KIND Dy
       BASIS_SET SZV-MOLOPT-SR-GTH
       POTENTIAL GTH-PBE-q20
       &POTENTIAL
 4 6 0 10
  0.5102968700000000E+00 2  0.1767093508000000E+02 -0.8678777000000000E+00
 4
  0.4421234800000000E+00 2 -0.2715733840000000E+01  0.4017884260000000E+01
 -0.5187066270000000E+01
  0.4501723000000000E+00 2 -0.2773475350000000E+01  0.2201152450000000E+01
 -0.2604438700000000E+01
  0.4711651400000000E+00 1 -0.7522756100000000E+00
  0.2618074100000000E+00 1 -0.2424856414000000E+02
         # Potential name:  GTH-PBE-Q20  for symbol:  DY
         # Potential read from the potential filename: ../POTENTIAL
       &END POTENTIAL
     &END KIND
     &KIND Tb
       BASIS_SET SZV-MOLOPT-SR-GTH
       POTENTIAL GTH-PBE-q19
     &END KIND
     &KIND Ho
       BASIS_SET SZV-MOLOPT-SR-GTH
       POTENTIAL GTH-PBE-q21
     &END KIND
     &KIND Gd
       BASIS_SET SZV-MOLOPT-SR-GTH
       POTENTIAL GTH-PBE-q18
     &END KIND
     &KIND Lu
       BASIS_SET SZV-MOLOPT-SR-GTH
       POTENTIAL GTH-PBE-q25
     &END KIND
     &KIND Pm
       BASIS_SET SZV-MOLOPT-SR-GTH
       POTENTIAL GTH-PBE-q15
     &END KIND
     &KIND Tm
       BASIS_SET SZV-MOLOPT-SR-GTH
       POTENTIAL GTH-PBE-q23
     &END KIND
     &KIND F
       BASIS_SET SZV-GTH-PADE
       POTENTIAL GTH-PBE-q7
     &END KIND
     &KIND S
       BASIS_SET SZV-GTH-PADE
       POTENTIAL GTH-PBE-q6
     &END KIND
     &KIND Na
       BASIS_SET SZV-GTH-PADE
       POTENTIAL GTH-PBE-q9
     &END KIND
     &KIND B
       BASIS_SET SZV-GTH-PADE
       POTENTIAL GTH-PBE-q3
     &END KIND
     &KIND Cl
       BASIS_SET SZV-GTH-PADE
       POTENTIAL GTH-PBE-q7
     &END KIND
     &KIND H
       BASIS_SET SZV-GTH-PADE
       POTENTIAL GTH-PBE-q1
       &POTENTIAL
 1
  0.2000000000000000E+00 2 -0.4178900440000000E+01  0.7244633100000000E+00
 0
         # Potential name:  GTH-PBE-Q1  for symbol:  H
         # Potential read from the potential filename: ../POTENTIAL
       &END POTENTIAL
     &END KIND
     &KIND N
       BASIS_SET SZV-GTH-PADE
       POTENTIAL GTH-PBE-q5
       &POTENTIAL
 2 3
  0.2837905100000000E+00 2 -0.1241522559000000E+02  0.1868095920000000E+01
 2
  0.2554050000000000E+00 1  0.1363026257000000E+02
  0.2454945300000000E+00 0
         # Potential name:  GTH-PBE-Q5  for symbol:  N
         # Potential read from the potential filename: ../POTENTIAL
       &END POTENTIAL
     &END KIND
     &KIND O
       BASIS_SET SZV-GTH-PADE
       POTENTIAL GTH-PBE-q6
       &POTENTIAL
 2 4
  0.2445543000000000E+00 2 -0.1666721480000000E+02  0.2487311320000000E+01
 2
  0.2209559200000000E+00 1  0.1833745811000000E+02
  0.2113324700000000E+00 0
         # Potential name:  GTH-PBE-Q6  for symbol:  O
         # Potential read from the potential filename: ../POTENTIAL
       &END POTENTIAL
     &END KIND
     &KIND C
       BASIS_SET SZV-GTH-PADE
       POTENTIAL GTH-PBE-q4
       &POTENTIAL
 2 2
  0.3384712400000000E+00 2 -0.8803673979999999E+01  0.1339210850000000E+01
 2
  0.3025757500000000E+00 1  0.9622486650000001E+01
  0.2915069400000000E+00 0
         # Potential name:  GTH-PBE-Q4  for symbol:  C
         # Potential read from the potential filename: ../POTENTIAL
       &END POTENTIAL
     &END KIND
     &TOPOLOGY
       COORD_FILE_NAME ../../Dy_L9_L25_DMF_DMF.xyz
       COORD_FILE_FORMAT  XYZ
       NUMBER_OF_ATOMS  165
       MULTIPLE_UNIT_CELL  1 1 1
     &END TOPOLOGY
   &END SUBSYS
 &END FORCE_EVAL
