 # Version information for this restart file 
 # current date 2023-04-08 18:23:56.178
 # current working dir /mnt/scratch2/users/40265864/MSc_ML_MM/ln_replacements/xyz/Dy_L18_L20_L20_MeO_O/geometry_optimisation_2/run-6
 # Program compiled at                              Mon 24 Oct 18:14:20 BST 2022
 # Program compiled on                          login1.pri.kelvin2.alces.network
 # Program compiled for                                                    local
 # Source code revision number                                         svn:17462
 &GLOBAL
   PRINT_LEVEL  LOW
   PROJECT_NAME dy_complex
   RUN_TYPE  GEO_OPT
 &END GLOBAL
 &MOTION
   &GEO_OPT
     TYPE  MINIMIZATION
     OPTIMIZER  BFGS
     MAX_ITER  100
     MAX_DR     1.0000000000000001E-01
     MAX_FORCE     1.0000000000000001E-01
     RMS_DR     1.0000000000000000E-02
     RMS_FORCE     1.0000000000000000E-02
     STEP_START_VAL  32
     &BFGS
       TRUST_RADIUS     2.9999999999999999E-01
     &END BFGS
   &END GEO_OPT
 &END MOTION
 &FORCE_EVAL
   METHOD  QS
   &DFT
     BASIS_SET_FILE_NAME ../BASIS_MOLOPT_UCL
     BASIS_SET_FILE_NAME BASIS_SET
     POTENTIAL_FILE_NAME ../POTENTIAL
     UKS  T
     MULTIPLICITY  6
     CHARGE  3
     &SCF
       MAX_SCF  200
       EPS_SCF     5.0000000000000002E-05
       SCF_GUESS  RESTART
       &OT  T
         MINIMIZER  DIIS
         PRECONDITIONER  FULL_SINGLE_INVERSE
       &END OT
     &END SCF
     &MGRID
       NGRIDS  4
       CUTOFF     5.0000000000000000E+02
       REL_CUTOFF     3.0000000000000000E+01
     &END MGRID
     &XC
       DENSITY_CUTOFF     1.0000000000000000E-10
       GRADIENT_CUTOFF     1.0000000000000000E-10
       TAU_CUTOFF     1.0000000000000000E-10
       &XC_FUNCTIONAL  NO_SHORTCUT
         &PBE  T
         &END PBE
       &END XC_FUNCTIONAL
     &END XC
   &END DFT
   &SUBSYS
     &CELL
       A     2.5000000000000004E+01    0.0000000000000000E+00    0.0000000000000000E+00
       B     0.0000000000000000E+00    2.5000000000000004E+01    0.0000000000000000E+00
       C     0.0000000000000000E+00    0.0000000000000000E+00    2.5000000000000004E+01
       PERIODIC  XYZ
       MULTIPLE_UNIT_CELL  1 1 1
     &END CELL
     &COORD
C    1.3869533957701849E+00   -1.3818215357495154E+00   -2.9439844676018323E-01
O    3.6305613933909053E-01   -7.5673973042930587E-01    3.5643335216644917E-01
Dy   -7.2009824065085526E-01    7.5742795307726907E-01    1.7938526351881625E+00
O    4.7206156770192409E-01    2.0940972013228492E+00    7.4418904296394875E-02
O   -2.4948745958910998E+00   -5.5102819526288283E-01    2.4770571701124280E+00
C   -3.2839933672799231E+00   -7.6717665862199402E-01    3.4476854711788660E+00
C   -4.4294973938070195E+00   -1.7148024461315612E+00    3.3147601708359695E+00
C   -3.1085441500506836E+00   -5.7815931569493224E-02    4.7260646669641515E+00
C   -2.0575933346435931E+00    9.4868955736055682E-01    4.9891300867075685E+00
O   -1.2458101728846582E+00    1.3132164121131711E+00    4.0904571082040171E+00
C   -1.9706693988541084E+00    1.5010270593555468E+00    6.3761061557028436E+00
O   -2.1506946864775207E+00    7.9458799429572280E-01   -9.2885976431939077E-02
C   -2.9439931116395708E+00    1.5368600264457273E+00   -7.2817399849931896E-01
C   -3.4809352087353749E+00    1.1469829023804123E+00   -2.0655165006847929E+00
C   -3.3495164112891449E+00    2.8475884415711130E+00   -1.4841921776795411E-01
C   -2.8774587144700594E+00    3.2994532611579115E+00    1.1531194941940455E+00
O   -1.9633601228698521E+00    2.7551512849177695E+00    1.8155385301309623E+00
C   -3.5883067478939363E+00    4.5241842567500461E+00    1.8144011860658478E+00
F   -4.9285222754254514E+00    4.3812376679282776E+00    1.6486155405070180E+00
F   -3.1925236204814786E+00    5.6900700120356005E+00    1.2543292764343239E+00
F   -3.2661113259645069E+00    4.5091505249766310E+00    3.1216002573252051E+00
O    6.4043804666316750E-01   -5.5142118828674525E-01    3.2635521563085033E+00
C    1.6444787996792460E+00   -4.9720751700731053E-01    4.0365809701086883E+00
C    1.9843959554364341E+00   -1.5806761762943295E+00    5.0085494620563731E+00
C    2.5335108458349045E+00    6.9662728237754212E-01    4.0120793627252764E+00
C    2.2609759331229289E+00    1.8400675332630805E+00    3.1508068301780598E+00
O    1.1717977173344103E+00    2.0184346165102354E+00    2.5476429608840432E+00
C    3.3905819381881210E+00    2.8784433734235826E+00    2.8569769385997899E+00
F    4.5761850755113498E+00    2.2256846973489601E+00    2.7828606640566211E+00
F    3.4141785324396312E+00    3.8188552154067774E+00    3.8199449677969750E+00
F    3.1254423466900616E+00    3.4636180934598699E+00    1.6622103494766822E+00
H    2.3090599886457683E+00   -1.4929838789242120E+00    2.9535024810283683E-01
H    1.0263180512308103E+00   -2.3236180995934914E+00   -7.7155159950466867E-01
H    1.6012644326086525E+00   -7.5775631072946681E-01   -1.2120083892660849E+00
H    4.1544611781530705E-01    2.2034529156509302E+00   -8.8807228318743348E-01
H    1.0910036058997592E+00    2.7808779067557148E+00    4.0923637724606371E-01
H   -4.7786072764215834E+00   -2.0909756907331021E+00    4.2864478432729838E+00
H   -5.2797715363401663E+00   -1.1681119365370400E+00    2.8599500964316156E+00
H   -4.1837988869513794E+00   -2.5436896309472337E+00    2.6352470179026968E+00
H   -3.7965368336198333E+00   -2.9725153411286526E-01    5.5429361078949837E+00
H   -1.9634911403030830E+00    6.8513561546372825E-01    7.1202066489863123E+00
H   -1.0998758041843963E+00    2.1539625260696571E+00    6.5070765105314639E+00
H   -2.8898984153555509E+00    2.0779424386885297E+00    6.5997125438887911E+00
H   -3.3638688771373420E+00    6.9511052875288568E-02   -2.2374933829255093E+00
H   -4.5271770908670428E+00    1.4643767081830978E+00   -2.1948954335344797E+00
H   -2.9071526365797755E+00    1.6916802228507724E+00   -2.8460802441861635E+00
H   -4.0468401709791513E+00    3.4777954074209525E+00   -7.1047886417614381E-01
H    1.9834391994435272E+00   -1.1744136079495417E+00    6.0381326575537333E+00
H    1.2770163090296616E+00   -2.4125643460955288E+00    4.9274204883696680E+00
H    3.0158391849559196E+00   -1.9392570384232448E+00    4.8403339870243203E+00
H    3.4401754547381405E+00    7.1366465239719679E-01    4.6270760706954865E+00
     &END COORD
     &KIND Dy
       BASIS_SET DZVP-MOLOPT-SR-GTH
       POTENTIAL GTH-PBE-q20
       &POTENTIAL
 4 6 0 10
  0.5102968700000000E+00 2  0.1767093508000000E+02 -0.8678777000000000E+00
 4
  0.4421234800000000E+00 2 -0.2715733840000000E+01  0.4017884260000000E+01
 -0.5187066270000000E+01
  0.4501723000000000E+00 2 -0.2773475350000000E+01  0.2201152450000000E+01
 -0.2604438700000000E+01
  0.4711651400000000E+00 1 -0.7522756100000000E+00
  0.2618074100000000E+00 1 -0.2424856414000000E+02
         # Potential name:  GTH-PBE-Q20  for symbol:  DY
         # Potential read from the potential filename: ../POTENTIAL
       &END POTENTIAL
     &END KIND
     &KIND Tb
       BASIS_SET DZVP-MOLOPT-SR-GTH
       POTENTIAL GTH-PBE-q19
     &END KIND
     &KIND Ho
       BASIS_SET DZVP-MOLOPT-SR-GTH
       POTENTIAL GTH-PBE-q21
     &END KIND
     &KIND Gd
       BASIS_SET DZVP-MOLOPT-SR-GTH
       POTENTIAL GTH-PBE-q18
     &END KIND
     &KIND Lu
       BASIS_SET DZVP-MOLOPT-SR-GTH
       POTENTIAL GTH-PBE-q25
     &END KIND
     &KIND Pm
       BASIS_SET DZVP-MOLOPT-SR-GTH
       POTENTIAL GTH-PBE-q15
     &END KIND
     &KIND Tm
       BASIS_SET DZVP-MOLOPT-SR-GTH
       POTENTIAL GTH-PBE-q23
     &END KIND
     &KIND F
       BASIS_SET DZVP-GTH-PADE
       POTENTIAL GTH-PBE-q7
       &POTENTIAL
 2 5
  0.2149295900000000E+00 2 -0.2157302836000000E+02  0.3199776150000000E+01
 2
  0.1946840200000000E+00 1  0.2374354045000000E+02
  0.1861560800000000E+00 0
         # Potential name:  GTH-PBE-Q7  for symbol:  F
         # Potential read from the potential filename: ../POTENTIAL
       &END POTENTIAL
     &END KIND
     &KIND S
       BASIS_SET DZVP-GTH-PADE
       POTENTIAL GTH-PBE-q6
     &END KIND
     &KIND Na
       BASIS_SET DZVP-GTH-PADE
       POTENTIAL GTH-PBE-q9
     &END KIND
     &KIND B
       BASIS_SET DZVP-GTH-PADE
       POTENTIAL GTH-PBE-q3
     &END KIND
     &KIND Cl
       BASIS_SET DZVP-GTH-PADE
       POTENTIAL GTH-PBE-q7
     &END KIND
     &KIND H
       BASIS_SET DZVP-GTH-PADE
       POTENTIAL GTH-PBE-q1
       &POTENTIAL
 1
  0.2000000000000000E+00 2 -0.4178900440000000E+01  0.7244633100000000E+00
 0
         # Potential name:  GTH-PBE-Q1  for symbol:  H
         # Potential read from the potential filename: ../POTENTIAL
       &END POTENTIAL
     &END KIND
     &KIND N
       BASIS_SET DZVP-GTH-PADE
       POTENTIAL GTH-PBE-q5
     &END KIND
     &KIND O
       BASIS_SET DZVP-GTH-PADE
       POTENTIAL GTH-PBE-q6
       &POTENTIAL
 2 4
  0.2445543000000000E+00 2 -0.1666721480000000E+02  0.2487311320000000E+01
 2
  0.2209559200000000E+00 1  0.1833745811000000E+02
  0.2113324700000000E+00 0
         # Potential name:  GTH-PBE-Q6  for symbol:  O
         # Potential read from the potential filename: ../POTENTIAL
       &END POTENTIAL
     &END KIND
     &KIND C
       BASIS_SET DZVP-GTH-PADE
       POTENTIAL GTH-PBE-q4
       &POTENTIAL
 2 2
  0.3384712400000000E+00 2 -0.8803673979999999E+01  0.1339210850000000E+01
 2
  0.3025757500000000E+00 1  0.9622486650000001E+01
  0.2915069400000000E+00 0
         # Potential name:  GTH-PBE-Q4  for symbol:  C
         # Potential read from the potential filename: ../POTENTIAL
       &END POTENTIAL
     &END KIND
     &TOPOLOGY
       COORD_FILE_NAME ../../Dy_L18_L20_L20_MeO_O.xyz
       COORD_FILE_FORMAT  XYZ
       NUMBER_OF_ATOMS  51
       MULTIPLE_UNIT_CELL  1 1 1
     &END TOPOLOGY
   &END SUBSYS
 &END FORCE_EVAL
