 # Version information for this restart file 
 # current date 2023-04-08 18:22:58.176
 # current working dir /mnt/scratch2/users/40265864/MSc_ML_MM/ln_replacements/xyz/Dy_L18_L20_L20_MeO_O/geometry_optimisation_2/run-6
 # Program compiled at                              Mon 24 Oct 18:14:20 BST 2022
 # Program compiled on                          login1.pri.kelvin2.alces.network
 # Program compiled for                                                    local
 # Source code revision number                                         svn:17462
 &GLOBAL
   PRINT_LEVEL  LOW
   PROJECT_NAME dy_complex
   RUN_TYPE  GEO_OPT
 &END GLOBAL
 &MOTION
   &GEO_OPT
     TYPE  MINIMIZATION
     OPTIMIZER  BFGS
     MAX_ITER  100
     MAX_DR     1.0000000000000001E-01
     MAX_FORCE     1.0000000000000001E-01
     RMS_DR     1.0000000000000000E-02
     RMS_FORCE     1.0000000000000000E-02
     STEP_START_VAL  31
     &BFGS
       TRUST_RADIUS     2.9999999999999999E-01
     &END BFGS
   &END GEO_OPT
 &END MOTION
 &FORCE_EVAL
   METHOD  QS
   &DFT
     BASIS_SET_FILE_NAME ../BASIS_MOLOPT_UCL
     BASIS_SET_FILE_NAME BASIS_SET
     POTENTIAL_FILE_NAME ../POTENTIAL
     UKS  T
     MULTIPLICITY  6
     CHARGE  3
     &SCF
       MAX_SCF  200
       EPS_SCF     5.0000000000000002E-05
       SCF_GUESS  RESTART
       &OT  T
         MINIMIZER  DIIS
         PRECONDITIONER  FULL_SINGLE_INVERSE
       &END OT
     &END SCF
     &MGRID
       NGRIDS  4
       CUTOFF     5.0000000000000000E+02
       REL_CUTOFF     3.0000000000000000E+01
     &END MGRID
     &XC
       DENSITY_CUTOFF     1.0000000000000000E-10
       GRADIENT_CUTOFF     1.0000000000000000E-10
       TAU_CUTOFF     1.0000000000000000E-10
       &XC_FUNCTIONAL  NO_SHORTCUT
         &PBE  T
         &END PBE
       &END XC_FUNCTIONAL
     &END XC
   &END DFT
   &SUBSYS
     &CELL
       A     2.5000000000000004E+01    0.0000000000000000E+00    0.0000000000000000E+00
       B     0.0000000000000000E+00    2.5000000000000004E+01    0.0000000000000000E+00
       C     0.0000000000000000E+00    0.0000000000000000E+00    2.5000000000000004E+01
       PERIODIC  XYZ
       MULTIPLE_UNIT_CELL  1 1 1
     &END CELL
     &COORD
C    1.3795684713032614E+00   -1.3774692486212350E+00   -2.9335656238386959E-01
O    3.5037503962911248E-01   -7.5377316272048589E-01    3.5877368928819175E-01
Dy   -7.1766831649800478E-01    7.6640999520194597E-01    1.8144238575030724E+00
O    4.7293517904349086E-01    2.1038915297058343E+00    8.5974698738657929E-02
O   -2.4882614013010884E+00   -5.5940522665394576E-01    2.4780231671233039E+00
C   -3.2842745560225270E+00   -7.7207009893239398E-01    3.4472347661691374E+00
C   -4.4340184695497689E+00   -1.7152022250687191E+00    3.3174878170402478E+00
C   -3.1023348529242400E+00   -5.6660747719664444E-02    4.7251658915542896E+00
C   -2.0486839936758554E+00    9.4690669470093547E-01    4.9984221067501089E+00
O   -1.2530165927244679E+00    1.3093581140680266E+00    4.0875433884675605E+00
C   -1.9711086291859874E+00    1.5002753858763413E+00    6.3835624298212261E+00
O   -2.1468586558592833E+00    7.8591036679826332E-01   -9.1367104526396889E-02
C   -2.9428862839416046E+00    1.5353419127340120E+00   -7.2909503441176604E-01
C   -3.4753062175391238E+00    1.1462598413172542E+00   -2.0698653735412451E+00
C   -3.3513899721083296E+00    2.8449430362790911E+00   -1.5395554871214223E-01
C   -2.8837633301791010E+00    3.3065030729742784E+00    1.1468454334514715E+00
O   -1.9664553941783058E+00    2.7508068865834256E+00    1.7989939555683263E+00
C   -3.5838812478313931E+00    4.5278341401231099E+00    1.8240633993184185E+00
F   -4.9253403797323347E+00    4.3750493176420759E+00    1.6786449678744311E+00
F   -3.1961849560442430E+00    5.6833305448603060E+00    1.2427587249292991E+00
F   -3.2669808019326045E+00    4.5224712020336799E+00    3.1312447460983557E+00
O    6.4551657856685118E-01   -5.6207599040244649E-01    3.2710107519105582E+00
C    1.6475054214855465E+00   -4.9061312034763405E-01    4.0425547932906829E+00
C    1.9776395990652500E+00   -1.5813992219101052E+00    5.0087472415578160E+00
C    2.5365215017374476E+00    7.0256212199351320E-01    4.0124454184433969E+00
C    2.2628509216002435E+00    1.8384843606125383E+00    3.1439446803971260E+00
O    1.1695801220039950E+00    2.0136247521138508E+00    2.5533266085253605E+00
C    3.3896119813562873E+00    2.8788369747552149E+00    2.8511277590187851E+00
F    4.5777875367372651E+00    2.2316666162341332E+00    2.7862381037644863E+00
F    3.4118169369771887E+00    3.8120783244968477E+00    3.8204388800502365E+00
F    3.1274617765545414E+00    3.4741175701389819E+00    1.6609503401878196E+00
H    2.3051101202177322E+00   -1.4836835908457116E+00    2.9526759645298889E-01
H    1.0282567731041905E+00   -2.3208667858010528E+00   -7.7657922399537893E-01
H    1.5983971339810699E+00   -7.4167713829198745E-01   -1.2014456904796034E+00
H    4.2488227829692421E-01    2.2114820300685127E+00   -8.8616291903019495E-01
H    1.0948882616939928E+00    2.7801091990954108E+00    4.1244721690595287E-01
H   -4.7859929342829508E+00   -2.0834578303059099E+00    4.2913590821051111E+00
H   -5.2802556428627980E+00   -1.1656083601293334E+00    2.8556694828149478E+00
H   -4.1877979603285569E+00   -2.5457761312358049E+00    2.6399765001189035E+00
H   -3.7912390850602624E+00   -2.9836299387491838E-01    5.5415304582791327E+00
H   -1.9628425036582016E+00    6.8062147732198042E-01    7.1247969961084499E+00
H   -1.0968740518625473E+00    2.1499975244264276E+00    6.5080084796520570E+00
H   -2.8918614238734270E+00    2.0774409579511834E+00    6.5980801718086095E+00
H   -3.3628261721349597E+00    6.7053847664111071E-02   -2.2396480393375442E+00
H   -4.5222494793579857E+00    1.4641813254260496E+00   -2.2014859557889914E+00
H   -2.9006878539903069E+00    1.6811392955773878E+00   -2.8548041441204535E+00
H   -4.0511267210424551E+00    3.4765348923901458E+00   -7.1098104293746101E-01
H    1.9795740184995625E+00   -1.1778684401700510E+00    6.0402711820481425E+00
H    1.2730071270431813E+00   -2.4182457916024549E+00    4.9324201324173567E+00
H    3.0120758037632989E+00   -1.9389542932688701E+00    4.8465291274311468E+00
H    3.4409569118528140E+00    7.0964055824612216E-01    4.6303610349614734E+00
     &END COORD
     &KIND Dy
       BASIS_SET DZVP-MOLOPT-SR-GTH
       POTENTIAL GTH-PBE-q20
       &POTENTIAL
 4 6 0 10
  0.5102968700000000E+00 2  0.1767093508000000E+02 -0.8678777000000000E+00
 4
  0.4421234800000000E+00 2 -0.2715733840000000E+01  0.4017884260000000E+01
 -0.5187066270000000E+01
  0.4501723000000000E+00 2 -0.2773475350000000E+01  0.2201152450000000E+01
 -0.2604438700000000E+01
  0.4711651400000000E+00 1 -0.7522756100000000E+00
  0.2618074100000000E+00 1 -0.2424856414000000E+02
         # Potential name:  GTH-PBE-Q20  for symbol:  DY
         # Potential read from the potential filename: ../POTENTIAL
       &END POTENTIAL
     &END KIND
     &KIND Tb
       BASIS_SET DZVP-MOLOPT-SR-GTH
       POTENTIAL GTH-PBE-q19
     &END KIND
     &KIND Ho
       BASIS_SET DZVP-MOLOPT-SR-GTH
       POTENTIAL GTH-PBE-q21
     &END KIND
     &KIND Gd
       BASIS_SET DZVP-MOLOPT-SR-GTH
       POTENTIAL GTH-PBE-q18
     &END KIND
     &KIND Lu
       BASIS_SET DZVP-MOLOPT-SR-GTH
       POTENTIAL GTH-PBE-q25
     &END KIND
     &KIND Pm
       BASIS_SET DZVP-MOLOPT-SR-GTH
       POTENTIAL GTH-PBE-q15
     &END KIND
     &KIND Tm
       BASIS_SET DZVP-MOLOPT-SR-GTH
       POTENTIAL GTH-PBE-q23
     &END KIND
     &KIND F
       BASIS_SET DZVP-GTH-PADE
       POTENTIAL GTH-PBE-q7
       &POTENTIAL
 2 5
  0.2149295900000000E+00 2 -0.2157302836000000E+02  0.3199776150000000E+01
 2
  0.1946840200000000E+00 1  0.2374354045000000E+02
  0.1861560800000000E+00 0
         # Potential name:  GTH-PBE-Q7  for symbol:  F
         # Potential read from the potential filename: ../POTENTIAL
       &END POTENTIAL
     &END KIND
     &KIND S
       BASIS_SET DZVP-GTH-PADE
       POTENTIAL GTH-PBE-q6
     &END KIND
     &KIND Na
       BASIS_SET DZVP-GTH-PADE
       POTENTIAL GTH-PBE-q9
     &END KIND
     &KIND B
       BASIS_SET DZVP-GTH-PADE
       POTENTIAL GTH-PBE-q3
     &END KIND
     &KIND Cl
       BASIS_SET DZVP-GTH-PADE
       POTENTIAL GTH-PBE-q7
     &END KIND
     &KIND H
       BASIS_SET DZVP-GTH-PADE
       POTENTIAL GTH-PBE-q1
       &POTENTIAL
 1
  0.2000000000000000E+00 2 -0.4178900440000000E+01  0.7244633100000000E+00
 0
         # Potential name:  GTH-PBE-Q1  for symbol:  H
         # Potential read from the potential filename: ../POTENTIAL
       &END POTENTIAL
     &END KIND
     &KIND N
       BASIS_SET DZVP-GTH-PADE
       POTENTIAL GTH-PBE-q5
     &END KIND
     &KIND O
       BASIS_SET DZVP-GTH-PADE
       POTENTIAL GTH-PBE-q6
       &POTENTIAL
 2 4
  0.2445543000000000E+00 2 -0.1666721480000000E+02  0.2487311320000000E+01
 2
  0.2209559200000000E+00 1  0.1833745811000000E+02
  0.2113324700000000E+00 0
         # Potential name:  GTH-PBE-Q6  for symbol:  O
         # Potential read from the potential filename: ../POTENTIAL
       &END POTENTIAL
     &END KIND
     &KIND C
       BASIS_SET DZVP-GTH-PADE
       POTENTIAL GTH-PBE-q4
       &POTENTIAL
 2 2
  0.3384712400000000E+00 2 -0.8803673979999999E+01  0.1339210850000000E+01
 2
  0.3025757500000000E+00 1  0.9622486650000001E+01
  0.2915069400000000E+00 0
         # Potential name:  GTH-PBE-Q4  for symbol:  C
         # Potential read from the potential filename: ../POTENTIAL
       &END POTENTIAL
     &END KIND
     &TOPOLOGY
       COORD_FILE_NAME ../../Dy_L18_L20_L20_MeO_O.xyz
       COORD_FILE_FORMAT  XYZ
       NUMBER_OF_ATOMS  51
       MULTIPLE_UNIT_CELL  1 1 1
     &END TOPOLOGY
   &END SUBSYS
 &END FORCE_EVAL
