 # Version information for this restart file 
 # current date 2023-04-08 18:24:46.397
 # current working dir /mnt/scratch2/users/40265864/MSc_ML_MM/ln_replacements/xyz/Dy_L18_L20_L20_MeO_O/geometry_optimisation_2/run-6
 # Program compiled at                              Mon 24 Oct 18:14:20 BST 2022
 # Program compiled on                          login1.pri.kelvin2.alces.network
 # Program compiled for                                                    local
 # Source code revision number                                         svn:17462
 &GLOBAL
   PRINT_LEVEL  LOW
   PROJECT_NAME dy_complex
   RUN_TYPE  GEO_OPT
 &END GLOBAL
 &MOTION
   &GEO_OPT
     TYPE  MINIMIZATION
     OPTIMIZER  BFGS
     MAX_ITER  100
     MAX_DR     1.0000000000000001E-01
     MAX_FORCE     1.0000000000000001E-01
     RMS_DR     1.0000000000000000E-02
     RMS_FORCE     1.0000000000000000E-02
     STEP_START_VAL  33
     &BFGS
       TRUST_RADIUS     2.9999999999999999E-01
     &END BFGS
   &END GEO_OPT
 &END MOTION
 &FORCE_EVAL
   METHOD  QS
   &DFT
     BASIS_SET_FILE_NAME ../BASIS_MOLOPT_UCL
     BASIS_SET_FILE_NAME BASIS_SET
     POTENTIAL_FILE_NAME ../POTENTIAL
     UKS  T
     MULTIPLICITY  6
     CHARGE  3
     &SCF
       MAX_SCF  200
       EPS_SCF     5.0000000000000002E-05
       SCF_GUESS  RESTART
       &OT  T
         MINIMIZER  DIIS
         PRECONDITIONER  FULL_SINGLE_INVERSE
       &END OT
     &END SCF
     &MGRID
       NGRIDS  4
       CUTOFF     5.0000000000000000E+02
       REL_CUTOFF     3.0000000000000000E+01
     &END MGRID
     &XC
       DENSITY_CUTOFF     1.0000000000000000E-10
       GRADIENT_CUTOFF     1.0000000000000000E-10
       TAU_CUTOFF     1.0000000000000000E-10
       &XC_FUNCTIONAL  NO_SHORTCUT
         &PBE  T
         &END PBE
       &END XC_FUNCTIONAL
     &END XC
   &END DFT
   &SUBSYS
     &CELL
       A     2.5000000000000004E+01    0.0000000000000000E+00    0.0000000000000000E+00
       B     0.0000000000000000E+00    2.5000000000000004E+01    0.0000000000000000E+00
       C     0.0000000000000000E+00    0.0000000000000000E+00    2.5000000000000004E+01
       PERIODIC  XYZ
       MULTIPLE_UNIT_CELL  1 1 1
     &END CELL
     &COORD
C    1.3873836991483521E+00   -1.3896145121696324E+00   -2.9659174385629850E-01
O    3.6648763820364366E-01   -7.5098545789963533E-01    3.5964393406760342E-01
Dy   -7.1819289379939055E-01    7.6008483853617725E-01    1.7975816995857619E+00
O    4.6908256007300891E-01    2.0940609963212933E+00    8.0965148742367654E-02
O   -2.5014801511175784E+00   -5.5022245136296211E-01    2.4696753480625557E+00
C   -3.2883422679709557E+00   -7.6718567595983522E-01    3.4472620771443876E+00
C   -4.4324814464080289E+00   -1.7177522656066029E+00    3.3161871238847533E+00
C   -3.1064938847288301E+00   -5.5776241820702517E-02    4.7248075755366461E+00
C   -2.0531782698620011E+00    9.4736035667350682E-01    4.9939164037297470E+00
O   -1.2424883184030837E+00    1.3092240034701843E+00    4.0912703619413087E+00
C   -1.9744368088727933E+00    1.5019365493041095E+00    6.3808826093352913E+00
O   -2.1405878313469393E+00    7.9107119083725697E-01   -9.8681264435501806E-02
C   -2.9452244090393433E+00    1.5374778038988597E+00   -7.3254390391820257E-01
C   -3.4858810392629889E+00    1.1494136921817284E+00   -2.0694906271260645E+00
C   -3.3526759125548482E+00    2.8453282898556100E+00   -1.4935813944837206E-01
C   -2.8805264522304754E+00    3.3043063478736174E+00    1.1524422048336032E+00
O   -1.9640662801701536E+00    2.7505048528717309E+00    1.8112344845544930E+00
C   -3.5896095775728063E+00    4.5272869430802460E+00    1.8194216649833559E+00
F   -4.9309384879369524E+00    4.3751792121363122E+00    1.6626002880184922E+00
F   -3.1870387246001255E+00    5.6809477577861838E+00    1.2447419300075173E+00
F   -3.2708662196759404E+00    4.5263393294982475E+00    3.1259185969146026E+00
O    6.3990233852993861E-01   -5.5540119813387212E-01    3.2697869528204340E+00
C    1.6435076537849167E+00   -4.9304207223411389E-01    4.0412691850311298E+00
C    1.9855648961418180E+00   -1.5802710644534179E+00    5.0082951187376779E+00
C    2.5331260619695124E+00    6.9925914113608612E-01    4.0097208987416231E+00
C    2.2618440782944926E+00    1.8356009192591842E+00    3.1410451378788160E+00
O    1.1728152138682120E+00    2.0174767085687275E+00    2.5480669811372008E+00
C    3.3889480487238859E+00    2.8772694053189847E+00    2.8532192100521820E+00
F    4.5778176303197506E+00    2.2310513244900170E+00    2.7803282793930002E+00
F    3.4032884344478589E+00    3.8095606722126685E+00    3.8226523522032565E+00
F    3.1330758506533578E+00    3.4734731391955620E+00    1.6636346033624432E+00
H    2.3155187188170139E+00   -1.5001531363976222E+00    2.8779957249047472E-01
H    1.0261168582022686E+00   -2.3306000860639378E+00   -7.7207547340533556E-01
H    1.6062267644608363E+00   -7.7032513423546289E-01   -1.2175151864181954E+00
H    4.2246179174511589E-01    2.1977257194113538E+00   -8.8960178846356353E-01
H    1.0862568738086664E+00    2.7843587182366156E+00    4.1288581708688699E-01
H   -4.7758328721400751E+00   -2.0924458839423492E+00    4.2916840043462141E+00
H   -5.2880689986074279E+00   -1.1743453833880784E+00    2.8637480950319274E+00
H   -4.1851977501795181E+00   -2.5458079759485481E+00    2.6365851438667440E+00
H   -3.7979879068744342E+00   -2.9488147163520817E-01    5.5392278640324566E+00
H   -1.9659802903035697E+00    6.8444242806612876E-01    7.1239006221716865E+00
H   -1.1039188515547982E+00    2.1557620576767875E+00    6.5107498285879606E+00
H   -2.8974042580445509E+00    2.0758955647510944E+00    6.5954481835031853E+00
H   -3.3695325831780232E+00    7.1847982654400747E-02   -2.2448452510961920E+00
H   -4.5335498871341651E+00    1.4676091380534759E+00   -2.1945121297731101E+00
H   -2.9153238229342717E+00    1.6932677057069045E+00   -2.8525142663399983E+00
H   -4.0486209666551893E+00    3.4792136644657976E+00   -7.0880822296668466E-01
H    1.9894563896950019E+00   -1.1768625503082830E+00    6.0391507005405423E+00
H    1.2823416831364625E+00   -2.4174924858760511E+00    4.9320891783838015E+00
H    3.0196477460449471E+00   -1.9336669305484409E+00    4.8375520314896745E+00
H    3.4373610055839792E+00    7.1322825394317002E-01    4.6284680544227772E+00
     &END COORD
     &KIND Dy
       BASIS_SET DZVP-MOLOPT-SR-GTH
       POTENTIAL GTH-PBE-q20
       &POTENTIAL
 4 6 0 10
  0.5102968700000000E+00 2  0.1767093508000000E+02 -0.8678777000000000E+00
 4
  0.4421234800000000E+00 2 -0.2715733840000000E+01  0.4017884260000000E+01
 -0.5187066270000000E+01
  0.4501723000000000E+00 2 -0.2773475350000000E+01  0.2201152450000000E+01
 -0.2604438700000000E+01
  0.4711651400000000E+00 1 -0.7522756100000000E+00
  0.2618074100000000E+00 1 -0.2424856414000000E+02
         # Potential name:  GTH-PBE-Q20  for symbol:  DY
         # Potential read from the potential filename: ../POTENTIAL
       &END POTENTIAL
     &END KIND
     &KIND Tb
       BASIS_SET DZVP-MOLOPT-SR-GTH
       POTENTIAL GTH-PBE-q19
     &END KIND
     &KIND Ho
       BASIS_SET DZVP-MOLOPT-SR-GTH
       POTENTIAL GTH-PBE-q21
     &END KIND
     &KIND Gd
       BASIS_SET DZVP-MOLOPT-SR-GTH
       POTENTIAL GTH-PBE-q18
     &END KIND
     &KIND Lu
       BASIS_SET DZVP-MOLOPT-SR-GTH
       POTENTIAL GTH-PBE-q25
     &END KIND
     &KIND Pm
       BASIS_SET DZVP-MOLOPT-SR-GTH
       POTENTIAL GTH-PBE-q15
     &END KIND
     &KIND Tm
       BASIS_SET DZVP-MOLOPT-SR-GTH
       POTENTIAL GTH-PBE-q23
     &END KIND
     &KIND F
       BASIS_SET DZVP-GTH-PADE
       POTENTIAL GTH-PBE-q7
       &POTENTIAL
 2 5
  0.2149295900000000E+00 2 -0.2157302836000000E+02  0.3199776150000000E+01
 2
  0.1946840200000000E+00 1  0.2374354045000000E+02
  0.1861560800000000E+00 0
         # Potential name:  GTH-PBE-Q7  for symbol:  F
         # Potential read from the potential filename: ../POTENTIAL
       &END POTENTIAL
     &END KIND
     &KIND S
       BASIS_SET DZVP-GTH-PADE
       POTENTIAL GTH-PBE-q6
     &END KIND
     &KIND Na
       BASIS_SET DZVP-GTH-PADE
       POTENTIAL GTH-PBE-q9
     &END KIND
     &KIND B
       BASIS_SET DZVP-GTH-PADE
       POTENTIAL GTH-PBE-q3
     &END KIND
     &KIND Cl
       BASIS_SET DZVP-GTH-PADE
       POTENTIAL GTH-PBE-q7
     &END KIND
     &KIND H
       BASIS_SET DZVP-GTH-PADE
       POTENTIAL GTH-PBE-q1
       &POTENTIAL
 1
  0.2000000000000000E+00 2 -0.4178900440000000E+01  0.7244633100000000E+00
 0
         # Potential name:  GTH-PBE-Q1  for symbol:  H
         # Potential read from the potential filename: ../POTENTIAL
       &END POTENTIAL
     &END KIND
     &KIND N
       BASIS_SET DZVP-GTH-PADE
       POTENTIAL GTH-PBE-q5
     &END KIND
     &KIND O
       BASIS_SET DZVP-GTH-PADE
       POTENTIAL GTH-PBE-q6
       &POTENTIAL
 2 4
  0.2445543000000000E+00 2 -0.1666721480000000E+02  0.2487311320000000E+01
 2
  0.2209559200000000E+00 1  0.1833745811000000E+02
  0.2113324700000000E+00 0
         # Potential name:  GTH-PBE-Q6  for symbol:  O
         # Potential read from the potential filename: ../POTENTIAL
       &END POTENTIAL
     &END KIND
     &KIND C
       BASIS_SET DZVP-GTH-PADE
       POTENTIAL GTH-PBE-q4
       &POTENTIAL
 2 2
  0.3384712400000000E+00 2 -0.8803673979999999E+01  0.1339210850000000E+01
 2
  0.3025757500000000E+00 1  0.9622486650000001E+01
  0.2915069400000000E+00 0
         # Potential name:  GTH-PBE-Q4  for symbol:  C
         # Potential read from the potential filename: ../POTENTIAL
       &END POTENTIAL
     &END KIND
     &TOPOLOGY
       COORD_FILE_NAME ../../Dy_L18_L20_L20_MeO_O.xyz
       COORD_FILE_FORMAT  XYZ
       NUMBER_OF_ATOMS  51
       MULTIPLE_UNIT_CELL  1 1 1
     &END TOPOLOGY
   &END SUBSYS
 &END FORCE_EVAL
