 # Version information for this restart file 
 # current date 2023-03-24 21:51:25.336
 # current working dir /mnt/scratch2/users/40265864/MSc_ML_MM/ln_replacements/xyz/Dy_L18_L20_L20_MeO_O/geometry_optimisation/run-6
 # Program compiled at                              Mon 24 Oct 18:14:20 BST 2022
 # Program compiled on                          login1.pri.kelvin2.alces.network
 # Program compiled for                                                    local
 # Source code revision number                                         svn:17462
 &GLOBAL
   PRINT_LEVEL  LOW
   PROJECT_NAME molecule_name
   RUN_TYPE  GEO_OPT
 &END GLOBAL
 &MOTION
   &GEO_OPT
     OPTIMIZER  BFGS
     MAX_DR     5.0000000000000000E-01
     MAX_FORCE     5.0000000000000000E-01
     RMS_DR     5.0000000000000003E-02
     RMS_FORCE     5.0000000000000003E-02
     STEP_START_VAL  97
   &END GEO_OPT
 &END MOTION
 &FORCE_EVAL
   METHOD  QS
   &DFT
     BASIS_SET_FILE_NAME ../BASIS_MOLOPT_UCL
     BASIS_SET_FILE_NAME BASIS_SET
     POTENTIAL_FILE_NAME ../POTENTIAL
     UKS  T
     MULTIPLICITY  6
     CHARGE  3
     &SCF
       MAX_SCF  50
       EPS_SCF     5.0000000000000002E-05
       SCF_GUESS  RESTART
       &OT  T
         MINIMIZER  DIIS
         PRECONDITIONER  FULL_KINETIC
       &END OT
       &OUTER_SCF  T
         EPS_SCF     5.0000000000000002E-05
         MAX_SCF  20
       &END OUTER_SCF
     &END SCF
     &MGRID
       NGRIDS  2
       CUTOFF     4.0000000000000000E+02
       REL_CUTOFF     5.0000000000000000E+01
     &END MGRID
     &XC
       DENSITY_CUTOFF     1.0000000000000000E-10
       GRADIENT_CUTOFF     1.0000000000000000E-10
       TAU_CUTOFF     1.0000000000000000E-10
       &XC_FUNCTIONAL  NO_SHORTCUT
         &PBE  T
         &END PBE
       &END XC_FUNCTIONAL
     &END XC
   &END DFT
   &SUBSYS
     &CELL
       A     1.1000000000000000E+01    0.0000000000000000E+00    0.0000000000000000E+00
       B     0.0000000000000000E+00    9.0000000000000000E+00    0.0000000000000000E+00
       C     0.0000000000000000E+00    0.0000000000000000E+00    1.1000000000000000E+01
       PERIODIC  NONE
       MULTIPLE_UNIT_CELL  1 1 1
     &END CELL
     &COORD
C    1.6308947936710165E+00   -1.3094003396340406E+00   -3.7870448341664636E-01
O    9.7303329542106604E-02   -1.2148883578971823E+00   -1.3072126692895777E-01
Dy   -1.2964268949028925E+00   -7.5438555127442741E-01    1.7921000178900550E+00
O   -2.2402697197300694E-01    8.5722790218773615E-01    7.0059736102157066E-01
O   -2.6384635823915783E+00   -1.2631901425816505E+00    2.7503764488894342E+00
C   -3.5640255282445938E+00   -1.9936387099150921E+00    4.0523336804985890E+00
C   -3.5653389890926110E+00   -2.7799867627899135E+00    3.1262709025802984E+00
C   -2.4633758344635748E+00   -1.2411425216725698E+00    3.9726076740408440E+00
C   -2.3528794583326360E+00   -2.0297629269455958E-01    4.9007681344955696E+00
O   -2.5253144781647849E+00    1.1508758471624110E+00    4.5733986961093107E+00
C   -2.4703576839126500E+00    8.2515852777896048E-01    6.0112034206569644E+00
O   -2.0779001783267210E+00    7.0422683983643852E-01   -2.2197659202208233E+00
C   -2.6560466330537853E+00    2.9034657478098942E+00   -1.2828792965824745E+00
C   -2.3704127609999688E+00    1.9173294918561730E+00   -2.4409182664820404E+00
C   -3.0541784892217163E+00    3.8698044565570515E+00   -2.4148727831427200E-01
C   -4.3317174425249272E+00    6.3463711043326052E+00    2.6885699566454782E+00
O   -3.6094356329542117E+00    5.5264785456555625E+00    3.5532950500012075E+00
C   -3.1479703655419211E+00    7.1028552323159770E+00    2.7677320306957918E+00
F   -4.2406851488480362E+00    6.8533806112545550E+00    4.2315330840279737E+00
F   -1.9244749478494916E+00    7.9496851857129345E+00    2.2505576614630103E+00
F   -2.5163366001143186E+00    7.0454234127501376E+00    3.9033606942792787E+00
O    5.2575206733049129E-01   -6.2843810698335290E-01    3.2004432250255044E+00
C    1.4808602638897503E+00   -6.1263555294335936E-01    4.1372277615806174E+00
C    1.7647294554929147E+00   -1.8637123495580565E+00    5.0577079495503563E+00
C    2.5300924023227074E+00    5.3157499616873993E-01    4.0979061502091669E+00
C    1.9163754367795813E+00    1.8423521472817233E+00    3.4715825299571930E+00
O    5.0681910855747159E-01    1.8650851670951625E+00    3.0707215177797007E+00
C    2.8868307263598951E+00    3.1395969601157985E+00    2.9099355049475508E+00
F    4.3167639605198493E+00    2.6167255309240964E+00    2.8704173339542223E+00
F    2.7473497102650266E+00    4.3342201923314931E+00    3.8425880023718957E+00
F    2.3497134456870841E+00    3.4551255768862705E+00    1.4891683882303461E+00
H    2.2186849678062366E+00   -1.3790132782344524E+00    7.1876847979567671E-01
H    1.8067152185354076E+00   -2.3602757075419007E+00   -1.0566294467783737E+00
H    2.0459060224783143E+00   -3.4237861764387273E-01   -1.0717446717675283E+00
H   -3.9564502804392893E-01    1.1601734226445528E+00   -3.6108620194843205E-01
H    5.9925195908527307E-01    1.4501847012415148E+00    1.1625888581469657E+00
H   -4.2192670702262705E+00   -1.2087696006969726E+00    3.7650260116167655E+00
H   -3.5152642400374448E+00   -7.7584262443898855E-01    2.5554975230802741E+00
H   -1.6618596390116067E+00   -1.9835968378777842E+00    4.0752567560858282E+00
H   -3.7615718729544967E+00   -2.6497515396986877E+00    4.8612946043701335E+00
H   -2.3222930913530502E+00    7.4478056902955347E-01    7.4174384897467229E+00
H   -2.2980833909036278E+00    1.1715158916979675E+00    8.3248775440509259E+00
H   -3.0240967871516609E+00    1.7249576034088696E+00    6.8043937778053944E+00
H   -2.4511414141273167E+00    6.1134624063725407E-01   -5.9534502799238531E+00
H   -2.9348023410749144E+00   -1.6219733433977599E+00   -7.5623193305057770E+00
H   -2.5518191996785848E+00    1.0793525490414155E+00   -4.2672016291636261E+00
H   -3.7079680805557103E+00    4.9673234177135450E+00   -4.1605854400972664E-01
H    1.8089586449549999E+00   -1.3927570375010541E+00    6.2056608431292428E+00
H    8.5985864906810172E-01   -2.6978027431309295E+00    4.9585555384644611E+00
H    2.8903391125740563E+00   -2.3864596553693533E+00    4.8519623298816068E+00
H    3.6699081312623263E+00    5.5653175191621018E-01    4.5796596376259782E+00
     &END COORD
     &KIND Dy
       BASIS_SET SZV-MOLOPT-SR-GTH
       POTENTIAL GTH-PBE-q20
       &POTENTIAL
 4 6 0 10
  0.5102968700000000E+00 2  0.1767093508000000E+02 -0.8678777000000000E+00
 4
  0.4421234800000000E+00 2 -0.2715733840000000E+01  0.4017884260000000E+01
 -0.5187066270000000E+01
  0.4501723000000000E+00 2 -0.2773475350000000E+01  0.2201152450000000E+01
 -0.2604438700000000E+01
  0.4711651400000000E+00 1 -0.7522756100000000E+00
  0.2618074100000000E+00 1 -0.2424856414000000E+02
         # Potential name:  GTH-PBE-Q20  for symbol:  DY
         # Potential read from the potential filename: ../POTENTIAL
       &END POTENTIAL
     &END KIND
     &KIND Tb
       BASIS_SET SZV-MOLOPT-SR-GTH
       POTENTIAL GTH-PBE-q19
     &END KIND
     &KIND Ho
       BASIS_SET SZV-MOLOPT-SR-GTH
       POTENTIAL GTH-PBE-q21
     &END KIND
     &KIND Gd
       BASIS_SET SZV-MOLOPT-SR-GTH
       POTENTIAL GTH-PBE-q18
     &END KIND
     &KIND Lu
       BASIS_SET SZV-MOLOPT-SR-GTH
       POTENTIAL GTH-PBE-q25
     &END KIND
     &KIND Pm
       BASIS_SET SZV-MOLOPT-SR-GTH
       POTENTIAL GTH-PBE-q15
     &END KIND
     &KIND Tm
       BASIS_SET SZV-MOLOPT-SR-GTH
       POTENTIAL GTH-PBE-q23
     &END KIND
     &KIND F
       BASIS_SET SZV-GTH-PADE
       POTENTIAL GTH-PBE-q7
       &POTENTIAL
 2 5
  0.2149295900000000E+00 2 -0.2157302836000000E+02  0.3199776150000000E+01
 2
  0.1946840200000000E+00 1  0.2374354045000000E+02
  0.1861560800000000E+00 0
         # Potential name:  GTH-PBE-Q7  for symbol:  F
         # Potential read from the potential filename: ../POTENTIAL
       &END POTENTIAL
     &END KIND
     &KIND S
       BASIS_SET SZV-GTH-PADE
       POTENTIAL GTH-PBE-q6
     &END KIND
     &KIND Na
       BASIS_SET SZV-GTH-PADE
       POTENTIAL GTH-PBE-q9
     &END KIND
     &KIND B
       BASIS_SET SZV-GTH-PADE
       POTENTIAL GTH-PBE-q3
     &END KIND
     &KIND Cl
       BASIS_SET SZV-GTH-PADE
       POTENTIAL GTH-PBE-q7
     &END KIND
     &KIND H
       BASIS_SET SZV-GTH-PADE
       POTENTIAL GTH-PBE-q1
       &POTENTIAL
 1
  0.2000000000000000E+00 2 -0.4178900440000000E+01  0.7244633100000000E+00
 0
         # Potential name:  GTH-PBE-Q1  for symbol:  H
         # Potential read from the potential filename: ../POTENTIAL
       &END POTENTIAL
     &END KIND
     &KIND N
       BASIS_SET SZV-GTH-PADE
       POTENTIAL GTH-PBE-q5
     &END KIND
     &KIND O
       BASIS_SET SZV-GTH-PADE
       POTENTIAL GTH-PBE-q6
       &POTENTIAL
 2 4
  0.2445543000000000E+00 2 -0.1666721480000000E+02  0.2487311320000000E+01
 2
  0.2209559200000000E+00 1  0.1833745811000000E+02
  0.2113324700000000E+00 0
         # Potential name:  GTH-PBE-Q6  for symbol:  O
         # Potential read from the potential filename: ../POTENTIAL
       &END POTENTIAL
     &END KIND
     &KIND C
       BASIS_SET SZV-GTH-PADE
       POTENTIAL GTH-PBE-q4
       &POTENTIAL
 2 2
  0.3384712400000000E+00 2 -0.8803673979999999E+01  0.1339210850000000E+01
 2
  0.3025757500000000E+00 1  0.9622486650000001E+01
  0.2915069400000000E+00 0
         # Potential name:  GTH-PBE-Q4  for symbol:  C
         # Potential read from the potential filename: ../POTENTIAL
       &END POTENTIAL
     &END KIND
     &TOPOLOGY
       COORD_FILE_NAME ../../Dy_L18_L20_L20_MeO_O.xyz
       COORD_FILE_FORMAT  XYZ
       NUMBER_OF_ATOMS  51
       MULTIPLE_UNIT_CELL  1 1 1
     &END TOPOLOGY
   &END SUBSYS
 &END FORCE_EVAL
