 # Version information for this restart file 
 # current date 2023-03-24 21:51:37.086
 # current working dir /mnt/scratch2/users/40265864/MSc_ML_MM/ln_replacements/xyz/Dy_L18_L20_L20_MeO_O/geometry_optimisation/run-6
 # Program compiled at                              Mon 24 Oct 18:14:20 BST 2022
 # Program compiled on                          login1.pri.kelvin2.alces.network
 # Program compiled for                                                    local
 # Source code revision number                                         svn:17462
 &GLOBAL
   PRINT_LEVEL  LOW
   PROJECT_NAME molecule_name
   RUN_TYPE  GEO_OPT
 &END GLOBAL
 &MOTION
   &GEO_OPT
     OPTIMIZER  BFGS
     MAX_DR     5.0000000000000000E-01
     MAX_FORCE     5.0000000000000000E-01
     RMS_DR     5.0000000000000003E-02
     RMS_FORCE     5.0000000000000003E-02
     STEP_START_VAL  98
   &END GEO_OPT
 &END MOTION
 &FORCE_EVAL
   METHOD  QS
   &DFT
     BASIS_SET_FILE_NAME ../BASIS_MOLOPT_UCL
     BASIS_SET_FILE_NAME BASIS_SET
     POTENTIAL_FILE_NAME ../POTENTIAL
     UKS  T
     MULTIPLICITY  6
     CHARGE  3
     &SCF
       MAX_SCF  50
       EPS_SCF     5.0000000000000002E-05
       SCF_GUESS  RESTART
       &OT  T
         MINIMIZER  DIIS
         PRECONDITIONER  FULL_KINETIC
       &END OT
       &OUTER_SCF  T
         EPS_SCF     5.0000000000000002E-05
         MAX_SCF  20
       &END OUTER_SCF
     &END SCF
     &MGRID
       NGRIDS  2
       CUTOFF     4.0000000000000000E+02
       REL_CUTOFF     5.0000000000000000E+01
     &END MGRID
     &XC
       DENSITY_CUTOFF     1.0000000000000000E-10
       GRADIENT_CUTOFF     1.0000000000000000E-10
       TAU_CUTOFF     1.0000000000000000E-10
       &XC_FUNCTIONAL  NO_SHORTCUT
         &PBE  T
         &END PBE
       &END XC_FUNCTIONAL
     &END XC
   &END DFT
   &SUBSYS
     &CELL
       A     1.1000000000000000E+01    0.0000000000000000E+00    0.0000000000000000E+00
       B     0.0000000000000000E+00    9.0000000000000000E+00    0.0000000000000000E+00
       C     0.0000000000000000E+00    0.0000000000000000E+00    1.1000000000000000E+01
       PERIODIC  NONE
       MULTIPLE_UNIT_CELL  1 1 1
     &END CELL
     &COORD
C    1.6353921313310311E+00   -1.3142868314082570E+00   -3.7645539976323994E-01
O    1.0098302885918305E-01   -1.2141792769957429E+00   -1.2405278625947813E-01
Dy   -1.3103556027968137E+00   -7.3597092974460965E-01    1.7958820870545686E+00
O   -2.3071379825237831E-01    8.5884752019052801E-01    6.8754309505125955E-01
O   -2.6537029680210065E+00   -1.2462238020430731E+00    2.7498543103878950E+00
C   -3.5677618429150155E+00   -1.9956157158131027E+00    4.0745598962710989E+00
C   -3.5712539634333420E+00   -2.7833140074739666E+00    3.1180793823342543E+00
C   -2.4578004396320114E+00   -1.2489137084675312E+00    3.9860458934580651E+00
C   -2.3602612741090705E+00   -2.0713652983429459E-01    4.8883937694313877E+00
O   -2.5143511654736264E+00    1.1406524930047035E+00    4.5643865734750504E+00
C   -2.4697295731391038E+00    8.2291186416172124E-01    5.9985143338661571E+00
O   -2.0912508999247756E+00    7.0399620797882911E-01   -2.2109942020251658E+00
C   -2.6736903013707298E+00    2.8874979639031375E+00   -1.2827931360821454E+00
C   -2.3606657807403706E+00    1.9025352245228708E+00   -2.4549549684772538E+00
C   -3.0445740785199673E+00    3.8816932346212165E+00   -2.8175503018507603E-01
C   -4.3292028547583303E+00    6.3587534649752397E+00    2.6517064937539696E+00
O   -3.6240920420673457E+00    5.5355075569024041E+00    3.5712151038360012E+00
C   -3.1574002822273104E+00    7.1070321066683064E+00    2.7582927593322584E+00
F   -4.2556520243766576E+00    6.8352474701843038E+00    4.2279854517588653E+00
F   -1.9395022171666689E+00    7.9682856889970557E+00    2.2520016150406756E+00
F   -2.5282904630643119E+00    7.0484658221718721E+00    3.9074329921382764E+00
O    4.8063525189427325E-01   -5.8583444505178184E-01    3.1975516943690554E+00
C    1.5327819498638298E+00   -6.4411609334767495E-01    4.1237325134108112E+00
C    1.7711611533588696E+00   -1.8820438096579029E+00    5.0722823129107342E+00
C    2.5290810326808955E+00    5.6594934447044321E-01    4.1164865149111325E+00
C    1.9143520917833301E+00    1.8256550284133899E+00    3.4516846245818802E+00
O    5.1959727908298081E-01    1.8609060695156721E+00    3.0781185320040145E+00
C    2.8769307540465432E+00    3.1317476431895348E+00    2.9165325174520178E+00
F    4.3168176734622881E+00    2.6362689521894929E+00    2.8539986886385464E+00
F    2.7562926342045153E+00    4.3426770496536573E+00    3.8410422410286640E+00
F    2.3694150932372362E+00    3.4517087693865762E+00    1.4914559615494309E+00
H    2.2314940009561401E+00   -1.3838764603443900E+00    7.1964622970731784E-01
H    1.8079382200983418E+00   -2.3668940651974499E+00   -1.0543474686487908E+00
H    2.0400956016833334E+00   -3.4470563417667099E-01   -1.0718842463146434E+00
H   -4.0054400144151225E-01    1.1742036589360936E+00   -3.7328856261627691E-01
H    5.8984898973488786E-01    1.4680323846984347E+00    1.1500827942868161E+00
H   -4.2431428198631957E+00   -1.2459791046667854E+00    3.7543586282114747E+00
H   -3.4801265673021833E+00   -8.0927017529461065E-01    2.5233038441151869E+00
H   -1.6308727030338528E+00   -2.0103122357389922E+00    4.1301591266375270E+00
H   -3.6881686330607537E+00   -2.6115174907158916E+00    4.9511522114799433E+00
H   -2.3370938261156939E+00    7.3793647378640859E-01    7.3929246928696486E+00
H   -2.2831155895803876E+00    1.1562551449474772E+00    8.3007853941231868E+00
H   -3.0247621899878165E+00    1.7348825150696248E+00    6.8068781889210950E+00
H   -2.4589015890881831E+00    5.9739653617073207E-01   -5.9597330691197730E+00
H   -2.9191455870879146E+00   -1.6155592151882476E+00   -7.5716904571852348E+00
H   -2.5516800668889168E+00    1.0820596747162918E+00   -4.2672421499429563E+00
H   -3.7305595098457398E+00    4.9836329662024612E+00   -4.0527747775173711E-01
H    1.8130315061456457E+00   -1.3991778360653937E+00    6.2183036319864220E+00
H    8.5545223319521646E-01   -2.6992192476269468E+00    4.9540982296964469E+00
H    2.8940568317469944E+00   -2.3918405608085394E+00    4.8459916556581417E+00
H    3.6786506434605362E+00    5.5669552800689837E-01    4.5835437012883808E+00
     &END COORD
     &KIND Dy
       BASIS_SET SZV-MOLOPT-SR-GTH
       POTENTIAL GTH-PBE-q20
       &POTENTIAL
 4 6 0 10
  0.5102968700000000E+00 2  0.1767093508000000E+02 -0.8678777000000000E+00
 4
  0.4421234800000000E+00 2 -0.2715733840000000E+01  0.4017884260000000E+01
 -0.5187066270000000E+01
  0.4501723000000000E+00 2 -0.2773475350000000E+01  0.2201152450000000E+01
 -0.2604438700000000E+01
  0.4711651400000000E+00 1 -0.7522756100000000E+00
  0.2618074100000000E+00 1 -0.2424856414000000E+02
         # Potential name:  GTH-PBE-Q20  for symbol:  DY
         # Potential read from the potential filename: ../POTENTIAL
       &END POTENTIAL
     &END KIND
     &KIND Tb
       BASIS_SET SZV-MOLOPT-SR-GTH
       POTENTIAL GTH-PBE-q19
     &END KIND
     &KIND Ho
       BASIS_SET SZV-MOLOPT-SR-GTH
       POTENTIAL GTH-PBE-q21
     &END KIND
     &KIND Gd
       BASIS_SET SZV-MOLOPT-SR-GTH
       POTENTIAL GTH-PBE-q18
     &END KIND
     &KIND Lu
       BASIS_SET SZV-MOLOPT-SR-GTH
       POTENTIAL GTH-PBE-q25
     &END KIND
     &KIND Pm
       BASIS_SET SZV-MOLOPT-SR-GTH
       POTENTIAL GTH-PBE-q15
     &END KIND
     &KIND Tm
       BASIS_SET SZV-MOLOPT-SR-GTH
       POTENTIAL GTH-PBE-q23
     &END KIND
     &KIND F
       BASIS_SET SZV-GTH-PADE
       POTENTIAL GTH-PBE-q7
       &POTENTIAL
 2 5
  0.2149295900000000E+00 2 -0.2157302836000000E+02  0.3199776150000000E+01
 2
  0.1946840200000000E+00 1  0.2374354045000000E+02
  0.1861560800000000E+00 0
         # Potential name:  GTH-PBE-Q7  for symbol:  F
         # Potential read from the potential filename: ../POTENTIAL
       &END POTENTIAL
     &END KIND
     &KIND S
       BASIS_SET SZV-GTH-PADE
       POTENTIAL GTH-PBE-q6
     &END KIND
     &KIND Na
       BASIS_SET SZV-GTH-PADE
       POTENTIAL GTH-PBE-q9
     &END KIND
     &KIND B
       BASIS_SET SZV-GTH-PADE
       POTENTIAL GTH-PBE-q3
     &END KIND
     &KIND Cl
       BASIS_SET SZV-GTH-PADE
       POTENTIAL GTH-PBE-q7
     &END KIND
     &KIND H
       BASIS_SET SZV-GTH-PADE
       POTENTIAL GTH-PBE-q1
       &POTENTIAL
 1
  0.2000000000000000E+00 2 -0.4178900440000000E+01  0.7244633100000000E+00
 0
         # Potential name:  GTH-PBE-Q1  for symbol:  H
         # Potential read from the potential filename: ../POTENTIAL
       &END POTENTIAL
     &END KIND
     &KIND N
       BASIS_SET SZV-GTH-PADE
       POTENTIAL GTH-PBE-q5
     &END KIND
     &KIND O
       BASIS_SET SZV-GTH-PADE
       POTENTIAL GTH-PBE-q6
       &POTENTIAL
 2 4
  0.2445543000000000E+00 2 -0.1666721480000000E+02  0.2487311320000000E+01
 2
  0.2209559200000000E+00 1  0.1833745811000000E+02
  0.2113324700000000E+00 0
         # Potential name:  GTH-PBE-Q6  for symbol:  O
         # Potential read from the potential filename: ../POTENTIAL
       &END POTENTIAL
     &END KIND
     &KIND C
       BASIS_SET SZV-GTH-PADE
       POTENTIAL GTH-PBE-q4
       &POTENTIAL
 2 2
  0.3384712400000000E+00 2 -0.8803673979999999E+01  0.1339210850000000E+01
 2
  0.3025757500000000E+00 1  0.9622486650000001E+01
  0.2915069400000000E+00 0
         # Potential name:  GTH-PBE-Q4  for symbol:  C
         # Potential read from the potential filename: ../POTENTIAL
       &END POTENTIAL
     &END KIND
     &TOPOLOGY
       COORD_FILE_NAME ../../Dy_L18_L20_L20_MeO_O.xyz
       COORD_FILE_FORMAT  XYZ
       NUMBER_OF_ATOMS  51
       MULTIPLE_UNIT_CELL  1 1 1
     &END TOPOLOGY
   &END SUBSYS
 &END FORCE_EVAL
