 # Version information for this restart file 
 # current date 2023-03-24 21:51:10.951
 # current working dir /mnt/scratch2/users/40265864/MSc_ML_MM/ln_replacements/xyz/Dy_L18_L20_L20_MeO_O/geometry_optimisation/run-6
 # Program compiled at                              Mon 24 Oct 18:14:20 BST 2022
 # Program compiled on                          login1.pri.kelvin2.alces.network
 # Program compiled for                                                    local
 # Source code revision number                                         svn:17462
 &GLOBAL
   PRINT_LEVEL  LOW
   PROJECT_NAME molecule_name
   RUN_TYPE  GEO_OPT
 &END GLOBAL
 &MOTION
   &GEO_OPT
     OPTIMIZER  BFGS
     MAX_DR     5.0000000000000000E-01
     MAX_FORCE     5.0000000000000000E-01
     RMS_DR     5.0000000000000003E-02
     RMS_FORCE     5.0000000000000003E-02
     STEP_START_VAL  96
   &END GEO_OPT
 &END MOTION
 &FORCE_EVAL
   METHOD  QS
   &DFT
     BASIS_SET_FILE_NAME ../BASIS_MOLOPT_UCL
     BASIS_SET_FILE_NAME BASIS_SET
     POTENTIAL_FILE_NAME ../POTENTIAL
     UKS  T
     MULTIPLICITY  6
     CHARGE  3
     &SCF
       MAX_SCF  50
       EPS_SCF     5.0000000000000002E-05
       SCF_GUESS  RESTART
       &OT  T
         MINIMIZER  DIIS
         PRECONDITIONER  FULL_KINETIC
       &END OT
       &OUTER_SCF  T
         EPS_SCF     5.0000000000000002E-05
         MAX_SCF  20
       &END OUTER_SCF
     &END SCF
     &MGRID
       NGRIDS  2
       CUTOFF     4.0000000000000000E+02
       REL_CUTOFF     5.0000000000000000E+01
     &END MGRID
     &XC
       DENSITY_CUTOFF     1.0000000000000000E-10
       GRADIENT_CUTOFF     1.0000000000000000E-10
       TAU_CUTOFF     1.0000000000000000E-10
       &XC_FUNCTIONAL  NO_SHORTCUT
         &PBE  T
         &END PBE
       &END XC_FUNCTIONAL
     &END XC
   &END DFT
   &SUBSYS
     &CELL
       A     1.1000000000000000E+01    0.0000000000000000E+00    0.0000000000000000E+00
       B     0.0000000000000000E+00    9.0000000000000000E+00    0.0000000000000000E+00
       C     0.0000000000000000E+00    0.0000000000000000E+00    1.1000000000000000E+01
       PERIODIC  NONE
       MULTIPLE_UNIT_CELL  1 1 1
     &END CELL
     &COORD
C    1.6223446066073470E+00   -1.3017091170003974E+00   -3.8400783571544772E-01
O    7.5996551445656063E-02   -1.2070981340723270E+00   -1.7278034858930669E-01
Dy   -1.3224204460754874E+00   -7.3784906283008334E-01    1.7783669467889545E+00
O   -2.0305141297848367E-01    8.3576560979390291E-01    6.9297746850883390E-01
O   -2.6696695894894606E+00   -1.2368639637235974E+00    2.7373743297496960E+00
C   -3.5860590925989833E+00   -2.0022850216937904E+00    4.0721385449799978E+00
C   -3.5917168763330141E+00   -2.7963248385592250E+00    3.0920556215142803E+00
C   -2.4758680258774355E+00   -1.2522919611873569E+00    3.9842411380261336E+00
C   -2.3687667290482231E+00   -2.1760697530035422E-01    4.9057058716239617E+00
O   -2.4979715335572985E+00    1.1310953532289618E+00    4.5584930340208709E+00
C   -2.4649649971617817E+00    8.1246270353080174E-01    6.0154194068578377E+00
O   -2.1212836117737313E+00    7.5761439862648183E-01   -2.1230993227327759E+00
C   -2.6031025398023329E+00    2.9028782542099689E+00   -1.2647621485909102E+00
C   -2.3657747240396771E+00    1.9161002395106030E+00   -2.4135058081829754E+00
C   -3.0815434596179814E+00    3.8369639697212881E+00   -2.5862403685800001E-01
C   -4.3611128690550487E+00    6.3345681878170144E+00    2.6302817011312292E+00
O   -3.6134971729549390E+00    5.5200587761195354E+00    3.5423422611307669E+00
C   -3.1743538371728168E+00    7.1016747742175212E+00    2.7563299350255370E+00
F   -4.2757595860923816E+00    6.8217474447371726E+00    4.2153662577926294E+00
F   -1.9534435090443758E+00    7.9704240885438287E+00    2.2326938375900092E+00
F   -2.5490483294483552E+00    7.0452660469799087E+00    3.8998716188250340E+00
O    4.5764777901497039E-01   -6.2811372066711602E-01    3.1848300346131895E+00
C    1.5361399571836138E+00   -6.7246091707013400E-01    4.1052261422093128E+00
C    1.7609768760065660E+00   -1.8857799662315817E+00    5.0826578606802943E+00
C    2.5052488415007241E+00    5.8713116398359710E-01    4.1047757703153849E+00
C    1.9116904452469623E+00    1.8265012810134831E+00    3.4133852608397701E+00
O    5.3647819579956701E-01    1.9129846375951121E+00    3.0951335453846878E+00
C    2.8960299172836645E+00    3.1218682473491612E+00    2.9199328937893991E+00
F    4.3421390306855088E+00    2.6274603420729381E+00    2.8553826622150753E+00
F    2.7702896281539422E+00    4.3737274507374311E+00    3.8193192172949182E+00
F    2.3763420267054336E+00    3.4437030236764650E+00    1.4920474897908163E+00
H    2.1994837207098188E+00   -1.3765597915262742E+00    7.2406953866749291E-01
H    1.8094226187875391E+00   -2.3567061661763353E+00   -1.0611968496678132E+00
H    2.0442105274206290E+00   -3.3257446205314012E-01   -1.0749956979777542E+00
H   -3.7037712454268717E-01    1.1825521779852977E+00   -3.6238318454405311E-01
H    6.1554033423523269E-01    1.4784759203459765E+00    1.1684393836375782E+00
H   -4.2840729757570521E+00   -1.2353062405440007E+00    3.7178981612000004E+00
H   -3.4892897673187759E+00   -8.1489092843800848E-01    2.4742556079501647E+00
H   -1.6285576731152784E+00   -2.0141583879870382E+00    4.1236441596288609E+00
H   -3.6656920273682916E+00   -2.5998112103021671E+00    4.9771347560943786E+00
H   -2.3500148961195415E+00    7.2749281566369450E-01    7.4421239544511586E+00
H   -2.2839687370235335E+00    1.1847608870686879E+00    8.3440165617986892E+00
H   -2.9899690960106220E+00    1.7783070270517929E+00    6.8390888253099744E+00
H   -2.4346703258698574E+00    5.9735745049320121E-01   -5.9591337574905099E+00
H   -2.9370381076445273E+00   -1.6074118434687379E+00   -7.5708104579762097E+00
H   -2.5767510611061009E+00    1.0726943688485824E+00   -4.2644860146367467E+00
H   -3.7149195035356390E+00    4.9777842916105666E+00   -4.4089280942976772E-01
H    1.7983131038347564E+00   -1.3736396900041150E+00    6.2239140524071592E+00
H    8.4741639357894494E-01   -2.7043663717962145E+00    4.9553886032726790E+00
H    2.8938353520725304E+00   -2.3677743901628183E+00    4.8523806118620385E+00
H    3.6655516787753970E+00    5.4578316454715259E-01    4.5697475291211722E+00
     &END COORD
     &KIND Dy
       BASIS_SET SZV-MOLOPT-SR-GTH
       POTENTIAL GTH-PBE-q20
       &POTENTIAL
 4 6 0 10
  0.5102968700000000E+00 2  0.1767093508000000E+02 -0.8678777000000000E+00
 4
  0.4421234800000000E+00 2 -0.2715733840000000E+01  0.4017884260000000E+01
 -0.5187066270000000E+01
  0.4501723000000000E+00 2 -0.2773475350000000E+01  0.2201152450000000E+01
 -0.2604438700000000E+01
  0.4711651400000000E+00 1 -0.7522756100000000E+00
  0.2618074100000000E+00 1 -0.2424856414000000E+02
         # Potential name:  GTH-PBE-Q20  for symbol:  DY
         # Potential read from the potential filename: ../POTENTIAL
       &END POTENTIAL
     &END KIND
     &KIND Tb
       BASIS_SET SZV-MOLOPT-SR-GTH
       POTENTIAL GTH-PBE-q19
     &END KIND
     &KIND Ho
       BASIS_SET SZV-MOLOPT-SR-GTH
       POTENTIAL GTH-PBE-q21
     &END KIND
     &KIND Gd
       BASIS_SET SZV-MOLOPT-SR-GTH
       POTENTIAL GTH-PBE-q18
     &END KIND
     &KIND Lu
       BASIS_SET SZV-MOLOPT-SR-GTH
       POTENTIAL GTH-PBE-q25
     &END KIND
     &KIND Pm
       BASIS_SET SZV-MOLOPT-SR-GTH
       POTENTIAL GTH-PBE-q15
     &END KIND
     &KIND Tm
       BASIS_SET SZV-MOLOPT-SR-GTH
       POTENTIAL GTH-PBE-q23
     &END KIND
     &KIND F
       BASIS_SET SZV-GTH-PADE
       POTENTIAL GTH-PBE-q7
       &POTENTIAL
 2 5
  0.2149295900000000E+00 2 -0.2157302836000000E+02  0.3199776150000000E+01
 2
  0.1946840200000000E+00 1  0.2374354045000000E+02
  0.1861560800000000E+00 0
         # Potential name:  GTH-PBE-Q7  for symbol:  F
         # Potential read from the potential filename: ../POTENTIAL
       &END POTENTIAL
     &END KIND
     &KIND S
       BASIS_SET SZV-GTH-PADE
       POTENTIAL GTH-PBE-q6
     &END KIND
     &KIND Na
       BASIS_SET SZV-GTH-PADE
       POTENTIAL GTH-PBE-q9
     &END KIND
     &KIND B
       BASIS_SET SZV-GTH-PADE
       POTENTIAL GTH-PBE-q3
     &END KIND
     &KIND Cl
       BASIS_SET SZV-GTH-PADE
       POTENTIAL GTH-PBE-q7
     &END KIND
     &KIND H
       BASIS_SET SZV-GTH-PADE
       POTENTIAL GTH-PBE-q1
       &POTENTIAL
 1
  0.2000000000000000E+00 2 -0.4178900440000000E+01  0.7244633100000000E+00
 0
         # Potential name:  GTH-PBE-Q1  for symbol:  H
         # Potential read from the potential filename: ../POTENTIAL
       &END POTENTIAL
     &END KIND
     &KIND N
       BASIS_SET SZV-GTH-PADE
       POTENTIAL GTH-PBE-q5
     &END KIND
     &KIND O
       BASIS_SET SZV-GTH-PADE
       POTENTIAL GTH-PBE-q6
       &POTENTIAL
 2 4
  0.2445543000000000E+00 2 -0.1666721480000000E+02  0.2487311320000000E+01
 2
  0.2209559200000000E+00 1  0.1833745811000000E+02
  0.2113324700000000E+00 0
         # Potential name:  GTH-PBE-Q6  for symbol:  O
         # Potential read from the potential filename: ../POTENTIAL
       &END POTENTIAL
     &END KIND
     &KIND C
       BASIS_SET SZV-GTH-PADE
       POTENTIAL GTH-PBE-q4
       &POTENTIAL
 2 2
  0.3384712400000000E+00 2 -0.8803673979999999E+01  0.1339210850000000E+01
 2
  0.3025757500000000E+00 1  0.9622486650000001E+01
  0.2915069400000000E+00 0
         # Potential name:  GTH-PBE-Q4  for symbol:  C
         # Potential read from the potential filename: ../POTENTIAL
       &END POTENTIAL
     &END KIND
     &TOPOLOGY
       COORD_FILE_NAME ../../Dy_L18_L20_L20_MeO_O.xyz
       COORD_FILE_FORMAT  XYZ
       NUMBER_OF_ATOMS  51
       MULTIPLE_UNIT_CELL  1 1 1
     &END TOPOLOGY
   &END SUBSYS
 &END FORCE_EVAL
