 # Version information for this restart file 
 # current date 2023-04-08 19:14:20.140
 # current working dir /mnt/scratch2/users/40265864/MSc_ML_MM/ln_replacements/xyz/Dy_L18_L20_L20_MeO_O/geometry_optimisation_2/run-0
 # Program compiled at                              Mon 24 Oct 18:14:20 BST 2022
 # Program compiled on                          login1.pri.kelvin2.alces.network
 # Program compiled for                                                    local
 # Source code revision number                                         svn:17462
 &GLOBAL
   PRINT_LEVEL  LOW
   PROJECT_NAME dy_complex
   RUN_TYPE  GEO_OPT
 &END GLOBAL
 &MOTION
   &GEO_OPT
     TYPE  MINIMIZATION
     OPTIMIZER  BFGS
     MAX_ITER  100
     MAX_DR     1.0000000000000001E-01
     MAX_FORCE     1.0000000000000001E-01
     RMS_DR     1.0000000000000000E-02
     RMS_FORCE     1.0000000000000000E-02
     STEP_START_VAL  29
     &BFGS
       TRUST_RADIUS     2.9999999999999999E-01
     &END BFGS
   &END GEO_OPT
 &END MOTION
 &FORCE_EVAL
   METHOD  QS
   &DFT
     BASIS_SET_FILE_NAME ../BASIS_MOLOPT_UCL
     BASIS_SET_FILE_NAME BASIS_SET
     POTENTIAL_FILE_NAME ../POTENTIAL
     UKS  T
     MULTIPLICITY  0
     CHARGE  3
     &SCF
       MAX_SCF  200
       EPS_SCF     5.0000000000000002E-05
       SCF_GUESS  RESTART
       &OT  T
         MINIMIZER  DIIS
         PRECONDITIONER  FULL_SINGLE_INVERSE
       &END OT
     &END SCF
     &MGRID
       NGRIDS  4
       CUTOFF     5.0000000000000000E+02
       REL_CUTOFF     3.0000000000000000E+01
     &END MGRID
     &XC
       DENSITY_CUTOFF     1.0000000000000000E-10
       GRADIENT_CUTOFF     1.0000000000000000E-10
       TAU_CUTOFF     1.0000000000000000E-10
       &XC_FUNCTIONAL  NO_SHORTCUT
         &PBE  T
         &END PBE
       &END XC_FUNCTIONAL
     &END XC
   &END DFT
   &SUBSYS
     &CELL
       A     2.5000000000000004E+01    0.0000000000000000E+00    0.0000000000000000E+00
       B     0.0000000000000000E+00    2.5000000000000004E+01    0.0000000000000000E+00
       C     0.0000000000000000E+00    0.0000000000000000E+00    2.5000000000000004E+01
       PERIODIC  XYZ
       MULTIPLE_UNIT_CELL  1 1 1
     &END CELL
     &COORD
C    1.3979294439622749E+00   -1.3457463121935804E+00   -2.6685690409357160E-01
O    3.8581755252608552E-01   -6.5379113220294760E-01    3.5013449003287161E-01
Dy   -7.5103280993804744E-01    7.7266774117945780E-01    1.8416546973006587E+00
O    4.6557169162468870E-01    2.0836086347379270E+00    1.0128323389016183E-01
O   -2.5120966037425556E+00   -5.5735097227743446E-01    2.4949706393798241E+00
C   -3.2962689056944052E+00   -7.7445782336639812E-01    3.4758026730146283E+00
C   -4.4350129648310093E+00   -1.7316401391025691E+00    3.3392162025708649E+00
C   -3.1273721526949583E+00   -6.1717171181482268E-02    4.7581639618928246E+00
C   -2.0872755160670278E+00    9.5667142675640671E-01    5.0253878295775021E+00
O   -1.3070700395330290E+00    1.3457152923407774E+00    4.1039512764739019E+00
C   -1.9979117690612247E+00    1.4944450019975173E+00    6.4196981721366404E+00
O   -2.2757249565039408E+00    8.4272568672864079E-01   -1.2303189336036456E-02
C   -3.0144625999022310E+00    1.6187931194095759E+00   -6.8932720629604749E-01
C   -3.5356636052529797E+00    1.2179120731587345E+00   -2.0285280575757740E+00
C   -3.3525128061128919E+00    2.9656641230009320E+00   -1.4780986320809250E-01
C   -2.8258147254013517E+00    3.4322084430921347E+00    1.1311685617016125E+00
O   -1.8885235237620841E+00    2.8605621075958165E+00    1.7418070606191827E+00
C   -3.5168483756298579E+00    4.6461015219697153E+00    1.8356248539400806E+00
F   -4.8588503180638654E+00    4.5118089813266682E+00    1.6695049900954004E+00
F   -3.1234021209889566E+00    5.8239619367992095E+00    1.3136951898623161E+00
F   -3.2050030899480002E+00    4.5927153913298255E+00    3.1420676405568706E+00
O    6.2106023427642087E-01   -5.2086181695966949E-01    3.3093635767990270E+00
C    1.6376756485276749E+00   -4.5504404794376274E-01    4.0574869546705798E+00
C    2.0046218833661102E+00   -1.5503731740366018E+00    5.0024348424707759E+00
C    2.5205065090638650E+00    7.3990631680939234E-01    4.0170102370849960E+00
C    2.2327052587192351E+00    1.8911802572370455E+00    3.1713229357684156E+00
O    1.1277073505888500E+00    2.0771387896199713E+00    2.6061721371912236E+00
C    3.3638759864389960E+00    2.9281260018428994E+00    2.8663193600657682E+00
F    4.5610010686819633E+00    2.2970670478051938E+00    2.7846575914894500E+00
F    3.4099003650007282E+00    3.8854382505566507E+00    3.8146191564795817E+00
F    3.0596243209736644E+00    3.4784753359499394E+00    1.6616723529603306E+00
H    2.2928929923615384E+00   -1.5223880069104234E+00    3.4863018072572616E-01
H    9.7595827153250692E-01   -2.2967583154616418E+00   -7.0434885456268037E-01
H    1.6473298616908520E+00   -8.0857649970666079E-01   -1.2238895403743710E+00
H    4.2081598682611043E-01    2.1066779420618431E+00   -8.7555109879362125E-01
H    1.0751464925478609E+00    2.8025979238036802E+00    3.8029385173776092E-01
H   -4.7841611455896036E+00   -2.1088400183589213E+00    4.3111939944627320E+00
H   -5.2916903526347312E+00   -1.1926141858061372E+00    2.8819959832445470E+00
H   -4.1827279299531774E+00   -2.5596720019752710E+00    2.6611426775378755E+00
H   -3.8082528044836672E+00   -3.1968994645495541E-01    5.5742250173268264E+00
H   -1.9899853287495972E+00    6.6421132261706728E-01    7.1501660285149713E+00
H   -1.1248290384185791E+00    2.1429191850983096E+00    6.5577764181293681E+00
H   -2.9170850852712924E+00    2.0682731721131162E+00    6.6509089601037328E+00
H   -3.4164491337770393E+00    1.3875102709541481E-01   -2.1883454634778694E+00
H   -4.5841243780261873E+00    1.5304841859284426E+00   -2.1659712391043962E+00
H   -2.9629042206011142E+00    1.7636797119018737E+00   -2.8083061205694397E+00
H   -4.0461236189982746E+00    3.6016041795375577E+00   -7.0937355674184677E-01
H    2.0146993664650794E+00   -1.1553539668580481E+00    6.0365095344834803E+00
H    1.3119338354312693E+00   -2.3977090799684331E+00    4.9301096027053184E+00
H    3.0420606703992386E+00   -1.8879145621673274E+00    4.8194625440292889E+00
H    3.4330810147016759E+00    7.4870494162688428E-01    4.6230519075423286E+00
     &END COORD
     &KIND Dy
       BASIS_SET DZVP-MOLOPT-SR-GTH
       POTENTIAL GTH-PBE-q20
       &POTENTIAL
 4 6 0 10
  0.5102968700000000E+00 2  0.1767093508000000E+02 -0.8678777000000000E+00
 4
  0.4421234800000000E+00 2 -0.2715733840000000E+01  0.4017884260000000E+01
 -0.5187066270000000E+01
  0.4501723000000000E+00 2 -0.2773475350000000E+01  0.2201152450000000E+01
 -0.2604438700000000E+01
  0.4711651400000000E+00 1 -0.7522756100000000E+00
  0.2618074100000000E+00 1 -0.2424856414000000E+02
         # Potential name:  GTH-PBE-Q20  for symbol:  DY
         # Potential read from the potential filename: ../POTENTIAL
       &END POTENTIAL
     &END KIND
     &KIND Tb
       BASIS_SET DZVP-MOLOPT-SR-GTH
       POTENTIAL GTH-PBE-q19
     &END KIND
     &KIND Ho
       BASIS_SET DZVP-MOLOPT-SR-GTH
       POTENTIAL GTH-PBE-q21
     &END KIND
     &KIND Gd
       BASIS_SET DZVP-MOLOPT-SR-GTH
       POTENTIAL GTH-PBE-q18
     &END KIND
     &KIND Lu
       BASIS_SET DZVP-MOLOPT-SR-GTH
       POTENTIAL GTH-PBE-q25
     &END KIND
     &KIND Pm
       BASIS_SET DZVP-MOLOPT-SR-GTH
       POTENTIAL GTH-PBE-q15
     &END KIND
     &KIND Tm
       BASIS_SET DZVP-MOLOPT-SR-GTH
       POTENTIAL GTH-PBE-q23
     &END KIND
     &KIND F
       BASIS_SET DZVP-GTH-PADE
       POTENTIAL GTH-PBE-q7
       &POTENTIAL
 2 5
  0.2149295900000000E+00 2 -0.2157302836000000E+02  0.3199776150000000E+01
 2
  0.1946840200000000E+00 1  0.2374354045000000E+02
  0.1861560800000000E+00 0
         # Potential name:  GTH-PBE-Q7  for symbol:  F
         # Potential read from the potential filename: ../POTENTIAL
       &END POTENTIAL
     &END KIND
     &KIND S
       BASIS_SET DZVP-GTH-PADE
       POTENTIAL GTH-PBE-q6
     &END KIND
     &KIND Na
       BASIS_SET DZVP-GTH-PADE
       POTENTIAL GTH-PBE-q9
     &END KIND
     &KIND B
       BASIS_SET DZVP-GTH-PADE
       POTENTIAL GTH-PBE-q3
     &END KIND
     &KIND Cl
       BASIS_SET DZVP-GTH-PADE
       POTENTIAL GTH-PBE-q7
     &END KIND
     &KIND H
       BASIS_SET DZVP-GTH-PADE
       POTENTIAL GTH-PBE-q1
       &POTENTIAL
 1
  0.2000000000000000E+00 2 -0.4178900440000000E+01  0.7244633100000000E+00
 0
         # Potential name:  GTH-PBE-Q1  for symbol:  H
         # Potential read from the potential filename: ../POTENTIAL
       &END POTENTIAL
     &END KIND
     &KIND N
       BASIS_SET DZVP-GTH-PADE
       POTENTIAL GTH-PBE-q5
     &END KIND
     &KIND O
       BASIS_SET DZVP-GTH-PADE
       POTENTIAL GTH-PBE-q6
       &POTENTIAL
 2 4
  0.2445543000000000E+00 2 -0.1666721480000000E+02  0.2487311320000000E+01
 2
  0.2209559200000000E+00 1  0.1833745811000000E+02
  0.2113324700000000E+00 0
         # Potential name:  GTH-PBE-Q6  for symbol:  O
         # Potential read from the potential filename: ../POTENTIAL
       &END POTENTIAL
     &END KIND
     &KIND C
       BASIS_SET DZVP-GTH-PADE
       POTENTIAL GTH-PBE-q4
       &POTENTIAL
 2 2
  0.3384712400000000E+00 2 -0.8803673979999999E+01  0.1339210850000000E+01
 2
  0.3025757500000000E+00 1  0.9622486650000001E+01
  0.2915069400000000E+00 0
         # Potential name:  GTH-PBE-Q4  for symbol:  C
         # Potential read from the potential filename: ../POTENTIAL
       &END POTENTIAL
     &END KIND
     &TOPOLOGY
       COORD_FILE_NAME ../../Dy_L18_L20_L20_MeO_O.xyz
       COORD_FILE_FORMAT  XYZ
       NUMBER_OF_ATOMS  51
       MULTIPLE_UNIT_CELL  1 1 1
     &END TOPOLOGY
   &END SUBSYS
 &END FORCE_EVAL
