 # Version information for this restart file 
 # current date 2023-04-08 19:13:32.718
 # current working dir /mnt/scratch2/users/40265864/MSc_ML_MM/ln_replacements/xyz/Dy_L18_L20_L20_MeO_O/geometry_optimisation_2/run-0
 # Program compiled at                              Mon 24 Oct 18:14:20 BST 2022
 # Program compiled on                          login1.pri.kelvin2.alces.network
 # Program compiled for                                                    local
 # Source code revision number                                         svn:17462
 &GLOBAL
   PRINT_LEVEL  LOW
   PROJECT_NAME dy_complex
   RUN_TYPE  GEO_OPT
 &END GLOBAL
 &MOTION
   &GEO_OPT
     TYPE  MINIMIZATION
     OPTIMIZER  BFGS
     MAX_ITER  100
     MAX_DR     1.0000000000000001E-01
     MAX_FORCE     1.0000000000000001E-01
     RMS_DR     1.0000000000000000E-02
     RMS_FORCE     1.0000000000000000E-02
     STEP_START_VAL  28
     &BFGS
       TRUST_RADIUS     2.9999999999999999E-01
     &END BFGS
   &END GEO_OPT
 &END MOTION
 &FORCE_EVAL
   METHOD  QS
   &DFT
     BASIS_SET_FILE_NAME ../BASIS_MOLOPT_UCL
     BASIS_SET_FILE_NAME BASIS_SET
     POTENTIAL_FILE_NAME ../POTENTIAL
     UKS  T
     MULTIPLICITY  0
     CHARGE  3
     &SCF
       MAX_SCF  200
       EPS_SCF     5.0000000000000002E-05
       SCF_GUESS  RESTART
       &OT  T
         MINIMIZER  DIIS
         PRECONDITIONER  FULL_SINGLE_INVERSE
       &END OT
     &END SCF
     &MGRID
       NGRIDS  4
       CUTOFF     5.0000000000000000E+02
       REL_CUTOFF     3.0000000000000000E+01
     &END MGRID
     &XC
       DENSITY_CUTOFF     1.0000000000000000E-10
       GRADIENT_CUTOFF     1.0000000000000000E-10
       TAU_CUTOFF     1.0000000000000000E-10
       &XC_FUNCTIONAL  NO_SHORTCUT
         &PBE  T
         &END PBE
       &END XC_FUNCTIONAL
     &END XC
   &END DFT
   &SUBSYS
     &CELL
       A     2.5000000000000004E+01    0.0000000000000000E+00    0.0000000000000000E+00
       B     0.0000000000000000E+00    2.5000000000000004E+01    0.0000000000000000E+00
       C     0.0000000000000000E+00    0.0000000000000000E+00    2.5000000000000004E+01
       PERIODIC  XYZ
       MULTIPLE_UNIT_CELL  1 1 1
     &END CELL
     &COORD
C    1.3887422397610083E+00   -1.3395398362807696E+00   -2.6278359179255456E-01
O    3.6719758766252786E-01   -6.5597573702021683E-01    3.4816373923806004E-01
Dy   -7.3916581123220459E-01    7.8807885310380243E-01    1.8396963048402795E+00
O    4.6616760960010517E-01    2.0847740267484483E+00    9.9106682388893363E-02
O   -2.4962486526860621E+00   -5.5826930181802981E-01    2.5000241650688642E+00
C   -3.2920077196350483E+00   -7.7436786401270163E-01    3.4721791420156518E+00
C   -4.4325464128166017E+00   -1.7262375736658579E+00    3.3373121659848390E+00
C   -3.1210037093418261E+00   -6.4556777921533928E-02    4.7557013164119128E+00
C   -2.0832019325007476E+00    9.5777130672194610E-01    5.0222013270965915E+00
O   -1.3087640194151682E+00    1.3524750421176110E+00    4.0968686940746055E+00
C   -1.9904256917600798E+00    1.4924630863019914E+00    6.4172867433619807E+00
O   -2.2784511912840681E+00    8.3343276483700490E-01    7.3182999851012743E-03
C   -3.0079237029875339E+00    1.6128328783155310E+00   -6.7875561782283300E-01
C   -3.5252253287184141E+00    1.2160119791817725E+00   -2.0206610811732273E+00
C   -3.3560955039726910E+00    2.9601891690440429E+00   -1.5377996007257702E-01
C   -2.8280053164509567E+00    3.4314746926716264E+00    1.1226711940846286E+00
O   -1.8875386989291056E+00    2.8804059921370539E+00    1.7434308559463456E+00
C   -3.5154990958342389E+00    4.6417245740361741E+00    1.8416487228052560E+00
F   -4.8557987994144858E+00    4.4996236344793026E+00    1.6720173971275460E+00
F   -3.1082956066513767E+00    5.8142240408672210E+00    1.3215009788747316E+00
F   -3.1905983329843854E+00    4.5952555903661683E+00    3.1447660026991358E+00
O    6.2835098407569234E-01   -5.1965793731146070E-01    3.2990258741274481E+00
C    1.6365343445207401E+00   -4.5739208230501754E-01    4.0565862550084200E+00
C    1.9943853756752625E+00   -1.5527379784194335E+00    5.0019093698179224E+00
C    2.5177092365121490E+00    7.3963563290100387E-01    4.0134549414295817E+00
C    2.2274116195039375E+00    1.8907349276187135E+00    3.1698788206352551E+00
O    1.1239405348706832E+00    2.0830260503536979E+00    2.6111677859000491E+00
C    3.3646563529497073E+00    2.9220346233935586E+00    2.8599510894701834E+00
F    4.5594459402611696E+00    2.2846319641856891E+00    2.7728931264989529E+00
F    3.4001291868517236E+00    3.8739956298951155E+00    3.8104148238595505E+00
F    3.0608165405269245E+00    3.4794781120640157E+00    1.6600824155524703E+00
H    2.2837941865463542E+00   -1.5072734743227512E+00    3.5458424932910121E-01
H    9.9125981035161681E-01   -2.2844598179048803E+00   -7.1070645921130315E-01
H    1.6357310321128298E+00   -7.8886161021781587E-01   -1.2084029140765207E+00
H    4.1617889823020748E-01    2.1115441088656248E+00   -8.7970360660504021E-01
H    1.0831087286584298E+00    2.7924592443150558E+00    3.7709038306724335E-01
H   -4.7924000957523054E+00   -2.1053253215051226E+00    4.3037340375880104E+00
H   -5.2833951423372776E+00   -1.1880178079914205E+00    2.8711565236269503E+00
H   -4.1807502604253548E+00   -2.5534707194703166E+00    2.6564725613073215E+00
H   -3.8019453959914724E+00   -3.1967893820652599E-01    5.5728954560688271E+00
H   -1.9807318922090189E+00    6.6830362324531978E-01    7.1529573119091969E+00
H   -1.1168509622465908E+00    2.1411421652950686E+00    6.5545811207299236E+00
H   -2.9050328898413111E+00    2.0725018766169110E+00    6.6493597422885404E+00
H   -3.4027992322626828E+00    1.3439229543757206E-01   -2.1805941282887855E+00
H   -4.5741925429623533E+00    1.5207337111394776E+00   -2.1713630236949060E+00
H   -2.9492849168300244E+00    1.7467358878627652E+00   -2.8040628974454975E+00
H   -4.0451588144666166E+00    3.6023865526196674E+00   -7.1281003654906339E-01
H    1.9991806832115426E+00   -1.1581193255041893E+00    6.0355430698656489E+00
H    1.2980184136426869E+00   -2.3968195284559748E+00    4.9257685757216363E+00
H    3.0306113930973679E+00   -1.8909878739574169E+00    4.8192243085861000E+00
H    3.4284793133040887E+00    7.4414443951691511E-01    4.6214058217087537E+00
     &END COORD
     &KIND Dy
       BASIS_SET DZVP-MOLOPT-SR-GTH
       POTENTIAL GTH-PBE-q20
       &POTENTIAL
 4 6 0 10
  0.5102968700000000E+00 2  0.1767093508000000E+02 -0.8678777000000000E+00
 4
  0.4421234800000000E+00 2 -0.2715733840000000E+01  0.4017884260000000E+01
 -0.5187066270000000E+01
  0.4501723000000000E+00 2 -0.2773475350000000E+01  0.2201152450000000E+01
 -0.2604438700000000E+01
  0.4711651400000000E+00 1 -0.7522756100000000E+00
  0.2618074100000000E+00 1 -0.2424856414000000E+02
         # Potential name:  GTH-PBE-Q20  for symbol:  DY
         # Potential read from the potential filename: ../POTENTIAL
       &END POTENTIAL
     &END KIND
     &KIND Tb
       BASIS_SET DZVP-MOLOPT-SR-GTH
       POTENTIAL GTH-PBE-q19
     &END KIND
     &KIND Ho
       BASIS_SET DZVP-MOLOPT-SR-GTH
       POTENTIAL GTH-PBE-q21
     &END KIND
     &KIND Gd
       BASIS_SET DZVP-MOLOPT-SR-GTH
       POTENTIAL GTH-PBE-q18
     &END KIND
     &KIND Lu
       BASIS_SET DZVP-MOLOPT-SR-GTH
       POTENTIAL GTH-PBE-q25
     &END KIND
     &KIND Pm
       BASIS_SET DZVP-MOLOPT-SR-GTH
       POTENTIAL GTH-PBE-q15
     &END KIND
     &KIND Tm
       BASIS_SET DZVP-MOLOPT-SR-GTH
       POTENTIAL GTH-PBE-q23
     &END KIND
     &KIND F
       BASIS_SET DZVP-GTH-PADE
       POTENTIAL GTH-PBE-q7
       &POTENTIAL
 2 5
  0.2149295900000000E+00 2 -0.2157302836000000E+02  0.3199776150000000E+01
 2
  0.1946840200000000E+00 1  0.2374354045000000E+02
  0.1861560800000000E+00 0
         # Potential name:  GTH-PBE-Q7  for symbol:  F
         # Potential read from the potential filename: ../POTENTIAL
       &END POTENTIAL
     &END KIND
     &KIND S
       BASIS_SET DZVP-GTH-PADE
       POTENTIAL GTH-PBE-q6
     &END KIND
     &KIND Na
       BASIS_SET DZVP-GTH-PADE
       POTENTIAL GTH-PBE-q9
     &END KIND
     &KIND B
       BASIS_SET DZVP-GTH-PADE
       POTENTIAL GTH-PBE-q3
     &END KIND
     &KIND Cl
       BASIS_SET DZVP-GTH-PADE
       POTENTIAL GTH-PBE-q7
     &END KIND
     &KIND H
       BASIS_SET DZVP-GTH-PADE
       POTENTIAL GTH-PBE-q1
       &POTENTIAL
 1
  0.2000000000000000E+00 2 -0.4178900440000000E+01  0.7244633100000000E+00
 0
         # Potential name:  GTH-PBE-Q1  for symbol:  H
         # Potential read from the potential filename: ../POTENTIAL
       &END POTENTIAL
     &END KIND
     &KIND N
       BASIS_SET DZVP-GTH-PADE
       POTENTIAL GTH-PBE-q5
     &END KIND
     &KIND O
       BASIS_SET DZVP-GTH-PADE
       POTENTIAL GTH-PBE-q6
       &POTENTIAL
 2 4
  0.2445543000000000E+00 2 -0.1666721480000000E+02  0.2487311320000000E+01
 2
  0.2209559200000000E+00 1  0.1833745811000000E+02
  0.2113324700000000E+00 0
         # Potential name:  GTH-PBE-Q6  for symbol:  O
         # Potential read from the potential filename: ../POTENTIAL
       &END POTENTIAL
     &END KIND
     &KIND C
       BASIS_SET DZVP-GTH-PADE
       POTENTIAL GTH-PBE-q4
       &POTENTIAL
 2 2
  0.3384712400000000E+00 2 -0.8803673979999999E+01  0.1339210850000000E+01
 2
  0.3025757500000000E+00 1  0.9622486650000001E+01
  0.2915069400000000E+00 0
         # Potential name:  GTH-PBE-Q4  for symbol:  C
         # Potential read from the potential filename: ../POTENTIAL
       &END POTENTIAL
     &END KIND
     &TOPOLOGY
       COORD_FILE_NAME ../../Dy_L18_L20_L20_MeO_O.xyz
       COORD_FILE_FORMAT  XYZ
       NUMBER_OF_ATOMS  51
       MULTIPLE_UNIT_CELL  1 1 1
     &END TOPOLOGY
   &END SUBSYS
 &END FORCE_EVAL
