 # Version information for this restart file 
 # current date 2023-04-08 19:15:31.396
 # current working dir /mnt/scratch2/users/40265864/MSc_ML_MM/ln_replacements/xyz/Dy_L18_L20_L20_MeO_O/geometry_optimisation_2/run-0
 # Program compiled at                              Mon 24 Oct 18:14:20 BST 2022
 # Program compiled on                          login1.pri.kelvin2.alces.network
 # Program compiled for                                                    local
 # Source code revision number                                         svn:17462
 &GLOBAL
   PRINT_LEVEL  LOW
   PROJECT_NAME dy_complex
   RUN_TYPE  GEO_OPT
 &END GLOBAL
 &MOTION
   &GEO_OPT
     TYPE  MINIMIZATION
     OPTIMIZER  BFGS
     MAX_ITER  100
     MAX_DR     1.0000000000000001E-01
     MAX_FORCE     1.0000000000000001E-01
     RMS_DR     1.0000000000000000E-02
     RMS_FORCE     1.0000000000000000E-02
     STEP_START_VAL  30
     &BFGS
       TRUST_RADIUS     2.9999999999999999E-01
     &END BFGS
   &END GEO_OPT
 &END MOTION
 &FORCE_EVAL
   METHOD  QS
   &DFT
     BASIS_SET_FILE_NAME ../BASIS_MOLOPT_UCL
     BASIS_SET_FILE_NAME BASIS_SET
     POTENTIAL_FILE_NAME ../POTENTIAL
     UKS  T
     MULTIPLICITY  0
     CHARGE  3
     &SCF
       MAX_SCF  200
       EPS_SCF     5.0000000000000002E-05
       SCF_GUESS  RESTART
       &OT  T
         MINIMIZER  DIIS
         PRECONDITIONER  FULL_SINGLE_INVERSE
       &END OT
     &END SCF
     &MGRID
       NGRIDS  4
       CUTOFF     5.0000000000000000E+02
       REL_CUTOFF     3.0000000000000000E+01
     &END MGRID
     &XC
       DENSITY_CUTOFF     1.0000000000000000E-10
       GRADIENT_CUTOFF     1.0000000000000000E-10
       TAU_CUTOFF     1.0000000000000000E-10
       &XC_FUNCTIONAL  NO_SHORTCUT
         &PBE  T
         &END PBE
       &END XC_FUNCTIONAL
     &END XC
   &END DFT
   &SUBSYS
     &CELL
       A     2.5000000000000004E+01    0.0000000000000000E+00    0.0000000000000000E+00
       B     0.0000000000000000E+00    2.5000000000000004E+01    0.0000000000000000E+00
       C     0.0000000000000000E+00    0.0000000000000000E+00    2.5000000000000004E+01
       PERIODIC  XYZ
       MULTIPLE_UNIT_CELL  1 1 1
     &END CELL
     &COORD
C    1.3932620985939095E+00   -1.3486452224720866E+00   -2.6674188316973368E-01
O    3.8450273346772118E-01   -6.5617379325614922E-01    3.5460626317657462E-01
Dy   -7.4421706339303140E-01    7.8971515984296181E-01    1.8515164684181380E+00
O    4.6848527774047899E-01    2.0813474196394579E+00    1.0037533305354764E-01
O   -2.5059586784757735E+00   -5.5356372584096414E-01    2.5040332569262502E+00
C   -3.3008943857268571E+00   -7.7705532427178425E-01    3.4717132670179782E+00
C   -4.4386056841323311E+00   -1.7362181137369850E+00    3.3388384737962973E+00
C   -3.1266798682864261E+00   -6.3433234193611493E-02    4.7540200029142561E+00
C   -2.0872118747279598E+00    9.5371617545178289E-01    5.0281883069701907E+00
O   -1.3118532052752048E+00    1.3424950963160327E+00    4.1056464954288492E+00
C   -1.9977753743849087E+00    1.4948776280686000E+00    6.4200948090633103E+00
O   -2.2813381226170577E+00    8.3882146378611755E-01   -9.3691456423891338E-03
C   -3.0111841469972846E+00    1.6149218106834955E+00   -6.8757198423825605E-01
C   -3.5363864653754771E+00    1.2202414077530266E+00   -2.0301187019964635E+00
C   -3.3499823910221678E+00    2.9635284708311231E+00   -1.4859918526008359E-01
C   -2.8251549188827871E+00    3.4299057062548091E+00    1.1315064395394381E+00
O   -1.8878910971885150E+00    2.8602481693504505E+00    1.7462067055705686E+00
C   -3.5191697432443156E+00    4.6455426242491908E+00    1.8329857435367205E+00
F   -4.8623756871005783E+00    4.5257001833997785E+00    1.6612876970446899E+00
F   -3.1266962588625704E+00    5.8265066586633951E+00    1.3147579948586301E+00
F   -3.2050863527361972E+00    4.5850606849942492E+00    3.1399845775596966E+00
O    6.2454893448185800E-01   -5.2427020439913352E-01    3.3075591281685552E+00
C    1.6367039496367455E+00   -4.5674286275832016E-01    4.0582047441696254E+00
C    2.0057036168900400E+00   -1.5516191612454384E+00    5.0037511019175192E+00
C    2.5198958769202280E+00    7.3872660787147015E-01    4.0198721139365308E+00
C    2.2334890870121766E+00    1.8893394583820744E+00    3.1747569069350154E+00
O    1.1295219566463715E+00    2.0795457338128767E+00    2.6072323160824253E+00
C    3.3609910049743110E+00    2.9286750401509098E+00    2.8668863794637418E+00
F    4.5590723940584912E+00    2.3046799765382251E+00    2.7758010068604531E+00
F    3.3997775515066921E+00    3.8787053010001755E+00    3.8192882145259786E+00
F    3.0700678250479596E+00    3.4804073785485294E+00    1.6623300171996067E+00
H    2.2943989608157023E+00   -1.5225800557021976E+00    3.4424753747791453E-01
H    9.8078250241708009E-01   -2.2967240866264111E+00   -7.0283285991380784E-01
H    1.6517044219061718E+00   -8.1428708538857664E-01   -1.2248223043758208E+00
H    4.2363107497069874E-01    2.1083362946797912E+00   -8.7471631354496249E-01
H    1.0770430730250595E+00    2.8006895714411697E+00    3.7775523252032212E-01
H   -4.7836213976789139E+00   -2.1119841583128833E+00    4.3132438666992750E+00
H   -5.2943195909243350E+00   -1.1941895006135539E+00    2.8817079040211091E+00
H   -4.1811947625861530E+00   -2.5597908240367997E+00    2.6583911554094537E+00
H   -3.8093572006802070E+00   -3.1801208536141357E-01    5.5710830901421051E+00
H   -1.9894039852299166E+00    6.6670105751454334E-01    7.1524034251747688E+00
H   -1.1255175174532970E+00    2.1452564180422677E+00    6.5545518604436133E+00
H   -2.9185150745648381E+00    2.0683280737385781E+00    6.6477771795980782E+00
H   -3.4185109571184391E+00    1.4140683578712421E-01   -2.1894762044883369E+00
H   -4.5862426344116027E+00    1.5310805385478126E+00   -2.1633649604579710E+00
H   -2.9662869118598789E+00    1.7645722356763629E+00   -2.8122891980312592E+00
H   -4.0436871645261370E+00    3.6031545719042630E+00   -7.0642829783513361E-01
H    2.0171055301586209E+00   -1.1572092048919878E+00    6.0386257393985510E+00
H    1.3124788459853438E+00   -2.3978012569865554E+00    4.9292770588677479E+00
H    3.0432897480402223E+00   -1.8887521638630964E+00    4.8190899190955916E+00
H    3.4346500225236203E+00    7.5095480924615121E-01    4.6228872061217041E+00
     &END COORD
     &KIND Dy
       BASIS_SET DZVP-MOLOPT-SR-GTH
       POTENTIAL GTH-PBE-q20
       &POTENTIAL
 4 6 0 10
  0.5102968700000000E+00 2  0.1767093508000000E+02 -0.8678777000000000E+00
 4
  0.4421234800000000E+00 2 -0.2715733840000000E+01  0.4017884260000000E+01
 -0.5187066270000000E+01
  0.4501723000000000E+00 2 -0.2773475350000000E+01  0.2201152450000000E+01
 -0.2604438700000000E+01
  0.4711651400000000E+00 1 -0.7522756100000000E+00
  0.2618074100000000E+00 1 -0.2424856414000000E+02
         # Potential name:  GTH-PBE-Q20  for symbol:  DY
         # Potential read from the potential filename: ../POTENTIAL
       &END POTENTIAL
     &END KIND
     &KIND Tb
       BASIS_SET DZVP-MOLOPT-SR-GTH
       POTENTIAL GTH-PBE-q19
     &END KIND
     &KIND Ho
       BASIS_SET DZVP-MOLOPT-SR-GTH
       POTENTIAL GTH-PBE-q21
     &END KIND
     &KIND Gd
       BASIS_SET DZVP-MOLOPT-SR-GTH
       POTENTIAL GTH-PBE-q18
     &END KIND
     &KIND Lu
       BASIS_SET DZVP-MOLOPT-SR-GTH
       POTENTIAL GTH-PBE-q25
     &END KIND
     &KIND Pm
       BASIS_SET DZVP-MOLOPT-SR-GTH
       POTENTIAL GTH-PBE-q15
     &END KIND
     &KIND Tm
       BASIS_SET DZVP-MOLOPT-SR-GTH
       POTENTIAL GTH-PBE-q23
     &END KIND
     &KIND F
       BASIS_SET DZVP-GTH-PADE
       POTENTIAL GTH-PBE-q7
       &POTENTIAL
 2 5
  0.2149295900000000E+00 2 -0.2157302836000000E+02  0.3199776150000000E+01
 2
  0.1946840200000000E+00 1  0.2374354045000000E+02
  0.1861560800000000E+00 0
         # Potential name:  GTH-PBE-Q7  for symbol:  F
         # Potential read from the potential filename: ../POTENTIAL
       &END POTENTIAL
     &END KIND
     &KIND S
       BASIS_SET DZVP-GTH-PADE
       POTENTIAL GTH-PBE-q6
     &END KIND
     &KIND Na
       BASIS_SET DZVP-GTH-PADE
       POTENTIAL GTH-PBE-q9
     &END KIND
     &KIND B
       BASIS_SET DZVP-GTH-PADE
       POTENTIAL GTH-PBE-q3
     &END KIND
     &KIND Cl
       BASIS_SET DZVP-GTH-PADE
       POTENTIAL GTH-PBE-q7
     &END KIND
     &KIND H
       BASIS_SET DZVP-GTH-PADE
       POTENTIAL GTH-PBE-q1
       &POTENTIAL
 1
  0.2000000000000000E+00 2 -0.4178900440000000E+01  0.7244633100000000E+00
 0
         # Potential name:  GTH-PBE-Q1  for symbol:  H
         # Potential read from the potential filename: ../POTENTIAL
       &END POTENTIAL
     &END KIND
     &KIND N
       BASIS_SET DZVP-GTH-PADE
       POTENTIAL GTH-PBE-q5
     &END KIND
     &KIND O
       BASIS_SET DZVP-GTH-PADE
       POTENTIAL GTH-PBE-q6
       &POTENTIAL
 2 4
  0.2445543000000000E+00 2 -0.1666721480000000E+02  0.2487311320000000E+01
 2
  0.2209559200000000E+00 1  0.1833745811000000E+02
  0.2113324700000000E+00 0
         # Potential name:  GTH-PBE-Q6  for symbol:  O
         # Potential read from the potential filename: ../POTENTIAL
       &END POTENTIAL
     &END KIND
     &KIND C
       BASIS_SET DZVP-GTH-PADE
       POTENTIAL GTH-PBE-q4
       &POTENTIAL
 2 2
  0.3384712400000000E+00 2 -0.8803673979999999E+01  0.1339210850000000E+01
 2
  0.3025757500000000E+00 1  0.9622486650000001E+01
  0.2915069400000000E+00 0
         # Potential name:  GTH-PBE-Q4  for symbol:  C
         # Potential read from the potential filename: ../POTENTIAL
       &END POTENTIAL
     &END KIND
     &TOPOLOGY
       COORD_FILE_NAME ../../Dy_L18_L20_L20_MeO_O.xyz
       COORD_FILE_FORMAT  XYZ
       NUMBER_OF_ATOMS  51
       MULTIPLE_UNIT_CELL  1 1 1
     &END TOPOLOGY
   &END SUBSYS
 &END FORCE_EVAL
