 # Version information for this restart file 
 # current date 2023-04-08 06:48:13.340
 # current working dir /mnt/scratch2/users/40265864/MSc_ML_MM/ln_replacements/xyz/Dy_L10_L19_L21/geometry_optimisation_2/run-0
 # Program compiled at                              Mon 24 Oct 18:14:20 BST 2022
 # Program compiled on                          login1.pri.kelvin2.alces.network
 # Program compiled for                                                    local
 # Source code revision number                                         svn:17462
 &GLOBAL
   PRINT_LEVEL  LOW
   PROJECT_NAME dy_complex
   RUN_TYPE  GEO_OPT
 &END GLOBAL
 &MOTION
   &GEO_OPT
     TYPE  MINIMIZATION
     OPTIMIZER  BFGS
     MAX_ITER  100
     MAX_DR     1.0000000000000001E-01
     MAX_FORCE     1.0000000000000001E-01
     RMS_DR     1.0000000000000000E-02
     RMS_FORCE     1.0000000000000000E-02
     STEP_START_VAL  26
     &BFGS
       TRUST_RADIUS     2.9999999999999999E-01
     &END BFGS
   &END GEO_OPT
 &END MOTION
 &FORCE_EVAL
   METHOD  QS
   &DFT
     BASIS_SET_FILE_NAME ../BASIS_MOLOPT_UCL
     BASIS_SET_FILE_NAME BASIS_SET
     POTENTIAL_FILE_NAME ../POTENTIAL
     UKS  T
     MULTIPLICITY  0
     CHARGE  3
     &SCF
       MAX_SCF  200
       EPS_SCF     5.0000000000000002E-05
       SCF_GUESS  RESTART
       &OT  T
         MINIMIZER  DIIS
         PRECONDITIONER  FULL_SINGLE_INVERSE
       &END OT
     &END SCF
     &MGRID
       NGRIDS  4
       CUTOFF     5.0000000000000000E+02
       REL_CUTOFF     3.0000000000000000E+01
     &END MGRID
     &XC
       DENSITY_CUTOFF     1.0000000000000000E-10
       GRADIENT_CUTOFF     1.0000000000000000E-10
       TAU_CUTOFF     1.0000000000000000E-10
       &XC_FUNCTIONAL  NO_SHORTCUT
         &PBE  T
         &END PBE
       &END XC_FUNCTIONAL
     &END XC
   &END DFT
   &SUBSYS
     &CELL
       A     2.5000000000000004E+01    0.0000000000000000E+00    0.0000000000000000E+00
       B     0.0000000000000000E+00    2.5000000000000004E+01    0.0000000000000000E+00
       C     0.0000000000000000E+00    0.0000000000000000E+00    2.5000000000000004E+01
       PERIODIC  XYZ
       MULTIPLE_UNIT_CELL  1 1 1
     &END CELL
     &COORD
Cl   -2.2913438482631467E+00    1.6883108494513202E+00   -1.3272876726180092E+01
C   -1.5630999572303548E+00    1.1701849760231975E+00   -1.1810167793312802E+01
C   -4.6540762296483851E-01    1.9003671852111108E+00   -1.1274623848553997E+01
C    1.1411299372823043E-01    1.4878649847262915E+00   -1.0071904268588373E+01
C   -3.7296399615512610E-01    3.3337423263578730E-01   -9.3820112240714479E+00
C   -1.4752588928244315E+00   -3.8768380867447300E-01   -9.9443989994370181E+00
C   -2.0665698111292450E+00    2.2691165803762070E-02   -1.1142148208610996E+01
C    2.7392643281155177E-01   -1.1556297347507662E-01   -8.1293645261756158E+00
C    5.3764240734792212E-01    8.8764037270680340E-01   -7.1126227895988769E+00
C    3.6944602532225208E-02    2.2680301131486735E+00   -7.1002993049061320E+00
C    5.8732631749961561E-01    2.8807963284852232E+00   -5.9982834263056812E+00
C    1.4080709122505826E+00    1.8756727724843649E+00   -5.3201026540052281E+00
N    1.3278008702987880E+00    6.8243721344058117E-01   -6.0137713975906371E+00
Dy    2.7429746180285948E+00   -1.1142625537022333E+00   -5.6526935088465935E+00
N    1.0461566388525805E+00   -2.1368781933941476E+00   -6.8455516623009274E+00
C    5.9164023691376011E-01   -1.5189505569952988E+00   -8.0064820225884237E+00
C    4.6487306074799389E-01   -2.5169864004045812E+00   -9.0582837690036779E+00
C    7.6776907210316037E-01   -3.7433690970562519E+00   -8.4973025070026296E+00
C    1.1170756483600133E+00   -3.4936992585970938E+00   -7.1062075417267510E+00
C    1.4958483533711118E+00   -4.5138223970255940E+00   -6.1618652968074707E+00
C    2.1170393663800859E+00   -4.2947861344615639E+00   -4.8824503226526463E+00
N    2.4844731406127378E+00   -3.0561492445514880E+00   -4.3930433968439662E+00
C    3.2140069377575942E+00   -3.2665391319495800E+00   -3.2451269758543861E+00
C    3.2441001928627302E+00   -4.6977462690705627E+00   -2.9402235092767706E+00
C    2.5472638523608366E+00   -5.3328284120586105E+00   -3.9462651097592487E+00
C    3.9300691716663994E+00   -2.2471793488995044E+00   -2.5158915027193891E+00
C    3.7396994515354263E+00   -8.2677303834009752E-01   -2.6557533756507437E+00
N    2.8530098128602264E+00   -2.4190969129222614E-01   -3.5472081860164302E+00
C    2.9463373195120606E+00    1.1273550187629491E+00   -3.3920859554945100E+00
C    2.2148208773114844E+00    2.1054212083266601E+00   -4.1578828777761734E+00
C    2.3399627876880138E+00    3.5289375007773591E+00   -3.7133720079030303E+00
C    1.6532215373798134E+00    3.9717364031930669E+00   -2.5495008296630530E+00
C    1.7306584949024912E+00    5.3120679324374258E+00   -2.1495162188377033E+00
C    2.5357838787888078E+00    6.2143194558825856E+00   -2.8995190679260334E+00
C    3.2390435237703499E+00    5.7822283888757910E+00   -4.0555531039965302E+00
C    3.1237824631449667E+00    4.4482443576320758E+00   -4.4664774098624811E+00
Cl    2.6593392667789293E+00    7.8475875804356825E+00   -2.3861565605821813E+00
C    3.9452800488914237E+00    1.4287082234274204E+00   -2.3633887508677600E+00
C    4.4515049717087436E+00    2.2503151831265908E-01   -1.9272026939736258E+00
C    5.0483844287831898E+00   -2.7533764452954239E+00   -1.6721157895575007E+00
C    5.1527036670249604E+00   -2.5256581747364582E+00   -2.7105169175928001E-01
C    6.2119564425407701E+00   -3.0782157439990665E+00    4.6198960993088767E-01
C    7.2039196327468016E+00   -3.8509590235330196E+00   -2.0679946496132684E-01
C    7.1294323666948358E+00   -4.0704202969193881E+00   -1.6052763901881884E+00
C    6.0566867016740558E+00   -3.5316875168371045E+00   -2.3226390346441126E+00
Cl    8.5048700344197297E+00   -4.5123501016161445E+00    6.9370650999202765E-01
C    1.2308460508186803E+00   -5.9257370241272271E+00   -6.5512272098523994E+00
C   -1.0999691057020543E-01   -6.3435598526318024E+00   -6.8035052628399111E+00
C   -3.9811885399798869E-01   -7.6898138287393047E+00   -7.0598074036693976E+00
C    6.6333041561545159E-01   -8.6299091010483213E+00   -7.1090826427519129E+00
C    2.0125309367278748E+00   -8.2190095626943815E+00   -6.9298202978156755E+00
C    2.2868299087852386E+00   -6.8788460078318030E+00   -6.6365849088392990E+00
Cl    3.1433665376046105E-01   -1.0289395308360708E+01   -7.3809716320970340E+00
O    3.9026093988666202E-02   -6.0844559032315337E-01   -3.1275531918075337E+00
C   -5.3475891802179754E-01   -1.4921657745351817E+00   -2.4234937929758109E+00
C   -1.3976659648795493E+00   -2.4594701583952649E+00   -3.0232199334392007E+00
C   -1.6002331160215861E+00   -2.1966566956899332E+00   -4.4022414540161181E+00
O   -1.0488463181640837E+00   -1.2342095501528429E+00   -5.0086636558508149E+00
C   -2.5954015324136499E+00   -3.0466528343768560E+00   -5.2590061474012924E+00
F   -2.8465571865968697E+00   -4.2574622791862202E+00   -4.7112075633653028E+00
F   -3.7548905117475622E+00   -2.3644138760172955E+00   -5.3696941548446642E+00
F   -2.0875684692171230E+00   -3.2652534449545780E+00   -6.5125456395141272E+00
C   -3.6353792492678133E-01   -1.3715027177229866E+00   -9.0479787949896928E-01
C   -2.7411368824310817E-01   -2.6529913446800912E+00   -5.5792689186873995E-02
C    3.8354679386215196E-01   -2.1155891832636460E+00    1.2455846874641658E+00
C    9.8570895236471812E-01   -7.4404678773117050E-01    8.3616568941541758E-01
O    8.2292682723425636E-01   -6.2648522863077438E-01   -6.0887804116170230E-01
O    4.5923584439757628E+00   -2.2458046126978095E+00   -6.1621085637391282E+00
C    5.1535399090216352E+00   -2.2240531431933217E+00   -7.3169120913923571E+00
C    5.1881902676603353E+00   -1.1132619084838509E+00   -8.1893802085605216E+00
C    4.7002846155625315E+00    1.4425964106228356E-01   -7.7311660115802905E+00
O    4.1670318433173978E+00    3.7583966540278801E-01   -6.5901753599903277E+00
C    4.7649688218163151E+00    1.3916962079359163E+00   -8.6444651173944909E+00
F    4.5274053892557840E+00    1.0464485513652868E+00   -9.9388326148720889E+00
F    5.9639472301986052E+00    2.0122597079954674E+00   -8.5488514468855179E+00
F    3.7983028288401268E+00    2.2930522856897557E+00   -8.2721189356729923E+00
C    5.8466172858520462E+00   -3.5586941768989804E+00   -7.6335489037438462E+00
F    5.1479058398605266E+00   -4.5824928594634597E+00   -7.0454751904200759E+00
F    7.0924124049944011E+00   -3.5436172753989483E+00   -7.0928034760449368E+00
F    5.9144011561630139E+00   -3.8056461874382816E+00   -8.9631111632834859E+00
H   -8.1554344467398759E-02    2.7701216786340925E+00   -1.1812354465854344E+01
H    9.8219768074319003E-01    2.0296379610953799E+00   -9.6878232625112251E+00
H   -1.8957960267492542E+00   -1.2397188655598865E+00   -9.4047961360964631E+00
H   -2.9156544229220089E+00   -5.2206706116352908E-01   -1.1561124482530875E+01
H   -6.6994171670097868E-01    2.7022168063900094E+00   -7.8045781135232435E+00
H    4.2221600276109711E-01    3.9048133772554539E+00   -5.6683440463573724E+00
H    2.3411712233089049E-01   -2.3242306234798185E+00   -1.0104314607858820E+01
H    8.0199113667520150E-01   -4.7062893721891701E+00   -9.0050572895534131E+00
H    3.7054455562139794E+00   -5.1596728660426310E+00   -2.0693202267510991E+00
H    2.3364344410642577E+00   -6.3974389888841241E+00   -4.0220090394482177E+00
H    1.0345029059486872E+00    3.2683286974693986E+00   -1.9854632977905546E+00
H    1.1768177622861458E+00    5.6677610922504975E+00   -1.2776917498427318E+00
H    3.8620089812339478E+00    6.4906927997580848E+00   -4.6059808064981009E+00
H    3.6587299529734327E+00    4.1098840093316662E+00   -5.3587011125237760E+00
H    4.2655907007386036E+00    2.4237286905202722E+00   -2.0578205735713846E+00
H    5.2523534334788291E+00    7.3347587626342692E-02   -1.2053808811499984E+00
H    4.3774093589564549E+00   -1.9576828979215499E+00    2.5078254204821959E-01
H    6.2811121355209023E+00   -2.9331944931828553E+00    1.5423338144040448E+00
H    7.9067510293975118E+00   -4.6501143568271965E+00   -2.1084213047743985E+00
H    6.0048928262135908E+00   -3.6856591755954531E+00   -3.4039804442897341E+00
H   -9.2707062541114971E-01   -5.6204655382378261E+00   -6.7447057871872751E+00
H   -1.4282046947811811E+00   -8.0219116077377315E+00   -7.2094516027716962E+00
H    2.8197248143896907E+00   -8.9488702935167499E+00   -7.0185831423333331E+00
H    3.3231756605336868E+00   -6.5541803354022177E+00   -6.5108329468149533E+00
H   -1.9016105272182597E+00   -3.2543248896872012E+00   -2.4697740046882593E+00
H   -1.2573641649384537E+00   -7.8128499138776297E-01   -6.0133075173990336E-01
H   -1.2625125444716776E+00   -3.1003490546049979E+00    1.2381885709396502E-01
H    3.6450156955094704E-01   -3.4007440763871846E+00   -5.5316813098054451E-01
H   -3.6233178491873158E-01   -1.9882757259190555E+00    2.0425732650668755E+00
H    1.1529929508943624E+00   -2.8060297090523147E+00    1.6172539006124627E+00
H    4.4883491634819406E-01    9.5074566070590949E-02    1.3159248673251294E+00
H    2.0604018784107900E+00   -6.2980397607000327E-01    1.0436383429432028E+00
H    5.6292653245978874E+00   -1.1995141688789963E+00   -9.1809983494103395E+00
     &END COORD
     &KIND Dy
       BASIS_SET DZVP-MOLOPT-SR-GTH
       POTENTIAL GTH-PBE-q20
       &POTENTIAL
 4 6 0 10
  0.5102968700000000E+00 2  0.1767093508000000E+02 -0.8678777000000000E+00
 4
  0.4421234800000000E+00 2 -0.2715733840000000E+01  0.4017884260000000E+01
 -0.5187066270000000E+01
  0.4501723000000000E+00 2 -0.2773475350000000E+01  0.2201152450000000E+01
 -0.2604438700000000E+01
  0.4711651400000000E+00 1 -0.7522756100000000E+00
  0.2618074100000000E+00 1 -0.2424856414000000E+02
         # Potential name:  GTH-PBE-Q20  for symbol:  DY
         # Potential read from the potential filename: ../POTENTIAL
       &END POTENTIAL
     &END KIND
     &KIND Tb
       BASIS_SET DZVP-MOLOPT-SR-GTH
       POTENTIAL GTH-PBE-q19
     &END KIND
     &KIND Ho
       BASIS_SET DZVP-MOLOPT-SR-GTH
       POTENTIAL GTH-PBE-q21
     &END KIND
     &KIND Gd
       BASIS_SET DZVP-MOLOPT-SR-GTH
       POTENTIAL GTH-PBE-q18
     &END KIND
     &KIND Lu
       BASIS_SET DZVP-MOLOPT-SR-GTH
       POTENTIAL GTH-PBE-q25
     &END KIND
     &KIND Pm
       BASIS_SET DZVP-MOLOPT-SR-GTH
       POTENTIAL GTH-PBE-q15
     &END KIND
     &KIND Tm
       BASIS_SET DZVP-MOLOPT-SR-GTH
       POTENTIAL GTH-PBE-q23
     &END KIND
     &KIND F
       BASIS_SET DZVP-GTH-PADE
       POTENTIAL GTH-PBE-q7
       &POTENTIAL
 2 5
  0.2149295900000000E+00 2 -0.2157302836000000E+02  0.3199776150000000E+01
 2
  0.1946840200000000E+00 1  0.2374354045000000E+02
  0.1861560800000000E+00 0
         # Potential name:  GTH-PBE-Q7  for symbol:  F
         # Potential read from the potential filename: ../POTENTIAL
       &END POTENTIAL
     &END KIND
     &KIND S
       BASIS_SET DZVP-GTH-PADE
       POTENTIAL GTH-PBE-q6
     &END KIND
     &KIND Na
       BASIS_SET DZVP-GTH-PADE
       POTENTIAL GTH-PBE-q9
     &END KIND
     &KIND B
       BASIS_SET DZVP-GTH-PADE
       POTENTIAL GTH-PBE-q3
     &END KIND
     &KIND Cl
       BASIS_SET DZVP-GTH-PADE
       POTENTIAL GTH-PBE-q7
       &POTENTIAL
 2 5
  0.4100000000000000E+00 1 -0.6392081810000000E+01
 2
  0.3395386400000000E+00 2  0.1521898983000000E+02 -0.4934523210000000E+01
  0.6370442080000000E+01
  0.3784741600000000E+00 1  0.4338775270000000E+01
         # Potential name:  GTH-PBE-Q7  for symbol:  CL
         # Potential read from the potential filename: ../POTENTIAL
       &END POTENTIAL
     &END KIND
     &KIND H
       BASIS_SET DZVP-GTH-PADE
       POTENTIAL GTH-PBE-q1
       &POTENTIAL
 1
  0.2000000000000000E+00 2 -0.4178900440000000E+01  0.7244633100000000E+00
 0
         # Potential name:  GTH-PBE-Q1  for symbol:  H
         # Potential read from the potential filename: ../POTENTIAL
       &END POTENTIAL
     &END KIND
     &KIND N
       BASIS_SET DZVP-GTH-PADE
       POTENTIAL GTH-PBE-q5
       &POTENTIAL
 2 3
  0.2837905100000000E+00 2 -0.1241522559000000E+02  0.1868095920000000E+01
 2
  0.2554050000000000E+00 1  0.1363026257000000E+02
  0.2454945300000000E+00 0
         # Potential name:  GTH-PBE-Q5  for symbol:  N
         # Potential read from the potential filename: ../POTENTIAL
       &END POTENTIAL
     &END KIND
     &KIND O
       BASIS_SET DZVP-GTH-PADE
       POTENTIAL GTH-PBE-q6
       &POTENTIAL
 2 4
  0.2445543000000000E+00 2 -0.1666721480000000E+02  0.2487311320000000E+01
 2
  0.2209559200000000E+00 1  0.1833745811000000E+02
  0.2113324700000000E+00 0
         # Potential name:  GTH-PBE-Q6  for symbol:  O
         # Potential read from the potential filename: ../POTENTIAL
       &END POTENTIAL
     &END KIND
     &KIND C
       BASIS_SET DZVP-GTH-PADE
       POTENTIAL GTH-PBE-q4
       &POTENTIAL
 2 2
  0.3384712400000000E+00 2 -0.8803673979999999E+01  0.1339210850000000E+01
 2
  0.3025757500000000E+00 1  0.9622486650000001E+01
  0.2915069400000000E+00 0
         # Potential name:  GTH-PBE-Q4  for symbol:  C
         # Potential read from the potential filename: ../POTENTIAL
       &END POTENTIAL
     &END KIND
     &TOPOLOGY
       COORD_FILE_NAME ../../Dy_L10_L19_L21.xyz
       COORD_FILE_FORMAT  XYZ
       NUMBER_OF_ATOMS  113
       MULTIPLE_UNIT_CELL  1 1 1
     &END TOPOLOGY
   &END SUBSYS
 &END FORCE_EVAL
