 # Version information for this restart file 
 # current date 2023-04-08 06:46:27.534
 # current working dir /mnt/scratch2/users/40265864/MSc_ML_MM/ln_replacements/xyz/Dy_L10_L19_L21/geometry_optimisation_2/run-0
 # Program compiled at                              Mon 24 Oct 18:14:20 BST 2022
 # Program compiled on                          login1.pri.kelvin2.alces.network
 # Program compiled for                                                    local
 # Source code revision number                                         svn:17462
 &GLOBAL
   PRINT_LEVEL  LOW
   PROJECT_NAME dy_complex
   RUN_TYPE  GEO_OPT
 &END GLOBAL
 &MOTION
   &GEO_OPT
     TYPE  MINIMIZATION
     OPTIMIZER  BFGS
     MAX_ITER  100
     MAX_DR     1.0000000000000001E-01
     MAX_FORCE     1.0000000000000001E-01
     RMS_DR     1.0000000000000000E-02
     RMS_FORCE     1.0000000000000000E-02
     STEP_START_VAL  25
     &BFGS
       TRUST_RADIUS     2.9999999999999999E-01
     &END BFGS
   &END GEO_OPT
 &END MOTION
 &FORCE_EVAL
   METHOD  QS
   &DFT
     BASIS_SET_FILE_NAME ../BASIS_MOLOPT_UCL
     BASIS_SET_FILE_NAME BASIS_SET
     POTENTIAL_FILE_NAME ../POTENTIAL
     UKS  T
     MULTIPLICITY  0
     CHARGE  3
     &SCF
       MAX_SCF  200
       EPS_SCF     5.0000000000000002E-05
       SCF_GUESS  RESTART
       &OT  T
         MINIMIZER  DIIS
         PRECONDITIONER  FULL_SINGLE_INVERSE
       &END OT
     &END SCF
     &MGRID
       NGRIDS  4
       CUTOFF     5.0000000000000000E+02
       REL_CUTOFF     3.0000000000000000E+01
     &END MGRID
     &XC
       DENSITY_CUTOFF     1.0000000000000000E-10
       GRADIENT_CUTOFF     1.0000000000000000E-10
       TAU_CUTOFF     1.0000000000000000E-10
       &XC_FUNCTIONAL  NO_SHORTCUT
         &PBE  T
         &END PBE
       &END XC_FUNCTIONAL
     &END XC
   &END DFT
   &SUBSYS
     &CELL
       A     2.5000000000000004E+01    0.0000000000000000E+00    0.0000000000000000E+00
       B     0.0000000000000000E+00    2.5000000000000004E+01    0.0000000000000000E+00
       C     0.0000000000000000E+00    0.0000000000000000E+00    2.5000000000000004E+01
       PERIODIC  XYZ
       MULTIPLE_UNIT_CELL  1 1 1
     &END CELL
     &COORD
Cl   -2.2923842230896945E+00    1.6890523781933766E+00   -1.3273114320259840E+01
C   -1.5613347004340361E+00    1.1684838465096654E+00   -1.1812354532938503E+01
C   -4.6483032181951239E-01    1.9001038022982915E+00   -1.1274007817137417E+01
C    1.1445828496811357E-01    1.4891127770878552E+00   -1.0070758045830893E+01
C   -3.7393263503507618E-01    3.3364577131787121E-01   -9.3826775340134692E+00
C   -1.4780237071961213E+00   -3.8715695037002512E-01   -9.9436314218322988E+00
C   -2.0647616444523091E+00    2.1855577803873955E-02   -1.1143722355706611E+01
C    2.7297937253458793E-01   -1.1643630117644022E-01   -8.1306410084318674E+00
C    5.4057346304049969E-01    8.9020689861082469E-01   -7.1162993669029788E+00
C    3.5532179532156025E-02    2.2688257993824110E+00   -7.1005225550676903E+00
C    5.8803181899351531E-01    2.8825840583049209E+00   -5.9999495994240633E+00
C    1.4054886790819234E+00    1.8772665773714872E+00   -5.3180965962966509E+00
N    1.3261390735596941E+00    6.8606444394521904E-01   -6.0147281560091930E+00
Dy    2.7426932788644609E+00   -1.1105853962905328E+00   -5.6600614324435057E+00
N    1.0449543140286865E+00   -2.1402179302173616E+00   -6.8496490105937298E+00
C    5.9311432856764479E-01   -1.5189898635953785E+00   -8.0098960257452809E+00
C    4.7019744020926735E-01   -2.5157504117808340E+00   -9.0602423320110308E+00
C    7.7075131239096561E-01   -3.7437234376545199E+00   -8.4986855877351211E+00
C    1.1163914930153849E+00   -3.4961139354270458E+00   -7.1071924822585402E+00
C    1.4965249663203859E+00   -4.5136957573682723E+00   -6.1623621383133704E+00
C    2.1190376289274924E+00   -4.2960154859836930E+00   -4.8823579674638058E+00
N    2.4869361535443151E+00   -3.0563457917514913E+00   -4.3965398273725924E+00
C    3.2092621139267954E+00   -3.2658286220099710E+00   -3.2429404101235990E+00
C    3.2462644868385127E+00   -4.6991304474040207E+00   -2.9404065944092377E+00
C    2.5468231048843220E+00   -5.3337347875819505E+00   -3.9452469297128188E+00
C    3.9257809037004319E+00   -2.2481021808402093E+00   -2.5118619384530128E+00
C    3.7441431324194934E+00   -8.2747514152492441E-01   -2.6594131025361589E+00
N    2.8534295056111785E+00   -2.4259268668913575E-01   -3.5469737185318309E+00
C    2.9510450256350764E+00    1.1269281103761222E+00   -3.3939263325421050E+00
C    2.2166957525311091E+00    2.1039914443124288E+00   -4.1573084248270655E+00
C    2.3400187460190525E+00    3.5281020242266496E+00   -3.7143887080341114E+00
C    1.6529278145389596E+00    3.9716751558577683E+00   -2.5501796217922870E+00
C    1.7289673385958308E+00    5.3121196148887551E+00   -2.1498485297541512E+00
C    2.5356602190411968E+00    6.2131102572446730E+00   -2.8993361098334973E+00
C    3.2395173290306238E+00    5.7823166286314631E+00   -4.0561893709883137E+00
C    3.1244703434424048E+00    4.4483158704461419E+00   -4.4650295392204349E+00
Cl    2.6586879519389663E+00    7.8465013349470141E+00   -2.3872068684230436E+00
C    3.9505550500624511E+00    1.4290309965447832E+00   -2.3652380396719153E+00
C    4.4530579639786385E+00    2.2365949147866818E-01   -1.9273770588474048E+00
C    5.0495233695026860E+00   -2.7517696655122097E+00   -1.6741364757159523E+00
C    5.1521775139101633E+00   -2.5284955017128787E+00   -2.7210703688295451E-01
C    6.2122628284825572E+00   -3.0783901046722777E+00    4.6186929800559939E-01
C    7.2035242314713726E+00   -3.8524666804258967E+00   -2.0788806182693137E-01
C    7.1293824898891849E+00   -4.0736938950505310E+00   -1.6063081052714723E+00
C    6.0595219807513283E+00   -3.5293077747263992E+00   -2.3224837729249477E+00
Cl    8.5046779037517304E+00   -4.5122906934400353E+00    6.9284251237431316E-01
C    1.2316860624827979E+00   -5.9257617688039703E+00   -6.5522544635463964E+00
C   -1.1008533762174282E-01   -6.3428797162674488E+00   -6.8010621759730983E+00
C   -3.9771880548965338E-01   -7.6890318995603044E+00   -7.0575758982585981E+00
C    6.6181996376978613E-01   -8.6293117461454809E+00   -7.1115865312340345E+00
C    2.0116994185685453E+00   -8.2189102045163960E+00   -6.9305851036243400E+00
C    2.2875617913952615E+00   -6.8793245796636953E+00   -6.6364945479539497E+00
Cl    3.1455938161513541E-01   -1.0290266628794285E+01   -7.3779811538256048E+00
O    4.3962947308969817E-02   -6.1022984414685688E-01   -3.1298436732596717E+00
C   -5.2960813265323514E-01   -1.4935546528302350E+00   -2.4278256793559323E+00
C   -1.3959856954774392E+00   -2.4543192966973608E+00   -3.0245556369177580E+00
C   -1.5992534061176746E+00   -2.1903738139220179E+00   -4.4027288653465417E+00
O   -1.0435760859285914E+00   -1.2329926162479292E+00   -5.0123667849136808E+00
C   -2.5923197446292856E+00   -3.0494189920206765E+00   -5.2638976103775992E+00
F   -2.8568072111106821E+00   -4.2564449694699382E+00   -4.7176743685603491E+00
F   -3.7585874534497474E+00   -2.3788987283096357E+00   -5.3640115345665285E+00
F   -2.0703738971472503E+00   -3.2523236887699229E+00   -6.5159986395392453E+00
C   -3.6499397526324689E-01   -1.3735686968117138E+00   -9.1013294832210767E-01
C   -2.7225312420246084E-01   -2.6534880329556234E+00   -5.6708388630877030E-02
C    3.8448937649551573E-01   -2.1129527888320605E+00    1.2442761404766101E+00
C    9.8795547783337256E-01   -7.4066112394612227E-01    8.3992611887594448E-01
O    8.1889533440624829E-01   -6.3077935999266088E-01   -6.0665609260923881E-01
O    4.5895154066150141E+00   -2.2472413515430958E+00   -6.1602253761716934E+00
C    5.1513458571704787E+00   -2.2212034898375652E+00   -7.3174203809235250E+00
C    5.1858369432296740E+00   -1.1072153857158824E+00   -8.1851801678843419E+00
C    4.6922216596325859E+00    1.4681785099056288E-01   -7.7308307060225490E+00
O    4.1664467235604681E+00    3.7225113815765648E-01   -6.5926349766284469E+00
C    4.7600296521274252E+00    1.3963112721024016E+00   -8.6386925081069101E+00
F    4.5165680854874433E+00    1.0337865065320890E+00   -9.9330607425164708E+00
F    5.9647146532520496E+00    2.0031457202953731E+00   -8.5484823977236850E+00
F    3.7847049721535422E+00    2.2945457664163023E+00   -8.2791429135172514E+00
C    5.8417653557513614E+00   -3.5599941934767170E+00   -7.6309221444430824E+00
F    5.1459863647857871E+00   -4.5828882241686397E+00   -7.0407822505931401E+00
F    7.0940555666654230E+00   -3.5489667943399557E+00   -7.1012512503467731E+00
F    5.9169138818500651E+00   -3.7917738873597506E+00   -8.9689083907422926E+00
H   -8.2432895639207929E-02    2.7702117795173447E+00   -1.1812300483450853E+01
H    9.8399938725457770E-01    2.0294770165349059E+00   -9.6887554438053325E+00
H   -1.8939896771772609E+00   -1.2416568852036540E+00   -9.4043247226460558E+00
H   -2.9146887796795538E+00   -5.2251571862939006E-01   -1.1560827467817061E+01
H   -6.7225754931985859E-01    2.7028989963956449E+00   -7.8043645433826558E+00
H    4.2075300688403072E-01    3.9061650924445352E+00   -5.6706900451305593E+00
H    2.3686768714221704E-01   -2.3243996176767858E+00   -1.0106038338285064E+01
H    8.0568898349380258E-01   -4.7053753756705623E+00   -9.0085105355249340E+00
H    3.7044380146940785E+00   -5.1622369132456605E+00   -2.0686053314862884E+00
H    2.3347592376279143E+00   -6.3980185454322465E+00   -4.0180064308488594E+00
H    1.0329926918118486E+00    3.2690198770332048E+00   -1.9864155467640232E+00
H    1.1756078381297210E+00    5.6679298345861007E+00   -1.2776677294663026E+00
H    3.8629773784274906E+00    6.4908654295908219E+00   -4.6058548877808629E+00
H    3.6594221360221462E+00    4.1092557819327489E+00   -5.3568213540103509E+00
H    4.2711593727474142E+00    2.4241572441929229E+00   -2.0579755186956672E+00
H    5.2569143719642879E+00    7.6072660692173180E-02   -1.2075904076396129E+00
H    4.3770838497352598E+00   -1.9602121600409019E+00    2.5033003856360264E-01
H    6.2808212024886751E+00   -2.9349070710844929E+00    1.5424821442595391E+00
H    7.9087352515723515E+00   -4.6500368060142092E+00   -2.1092578079029640E+00
H    6.0046408281526524E+00   -3.6849007335115669E+00   -3.4037609233681136E+00
H   -9.2753800979291368E-01   -5.6199727020615491E+00   -6.7441325616622843E+00
H   -1.4274327072708828E+00   -8.0222854569886248E+00   -7.2071758788490161E+00
H    2.8196525342892942E+00   -8.9482394971414614E+00   -7.0179362644516674E+00
H    3.3236345900201010E+00   -6.5534540970567843E+00   -6.5134365485972383E+00
H   -1.8961109417855566E+00   -3.2623143529593643E+00   -2.4681106601014546E+00
H   -1.2544985134388085E+00   -7.7791888741605530E-01   -6.0011710905175031E-01
H   -1.2619345685174908E+00   -3.0971515833079826E+00    1.2159143839034710E-01
H    3.6578057169380696E-01   -3.4024202986624390E+00   -5.5382240393351823E-01
H   -3.6184801659154170E-01   -1.9878091142277328E+00    2.0413297109031929E+00
H    1.1523441760807354E+00   -2.8053652147885764E+00    1.6168133052480609E+00
H    4.4548669507686817E-01    9.5351652282614163E-02    1.3121715870824062E+00
H    2.0642160745248419E+00   -6.2844579032298487E-01    1.0467249062905961E+00
H    5.6242867966407388E+00   -1.2040405491582520E+00   -9.1821321937449056E+00
     &END COORD
     &KIND Dy
       BASIS_SET DZVP-MOLOPT-SR-GTH
       POTENTIAL GTH-PBE-q20
       &POTENTIAL
 4 6 0 10
  0.5102968700000000E+00 2  0.1767093508000000E+02 -0.8678777000000000E+00
 4
  0.4421234800000000E+00 2 -0.2715733840000000E+01  0.4017884260000000E+01
 -0.5187066270000000E+01
  0.4501723000000000E+00 2 -0.2773475350000000E+01  0.2201152450000000E+01
 -0.2604438700000000E+01
  0.4711651400000000E+00 1 -0.7522756100000000E+00
  0.2618074100000000E+00 1 -0.2424856414000000E+02
         # Potential name:  GTH-PBE-Q20  for symbol:  DY
         # Potential read from the potential filename: ../POTENTIAL
       &END POTENTIAL
     &END KIND
     &KIND Tb
       BASIS_SET DZVP-MOLOPT-SR-GTH
       POTENTIAL GTH-PBE-q19
     &END KIND
     &KIND Ho
       BASIS_SET DZVP-MOLOPT-SR-GTH
       POTENTIAL GTH-PBE-q21
     &END KIND
     &KIND Gd
       BASIS_SET DZVP-MOLOPT-SR-GTH
       POTENTIAL GTH-PBE-q18
     &END KIND
     &KIND Lu
       BASIS_SET DZVP-MOLOPT-SR-GTH
       POTENTIAL GTH-PBE-q25
     &END KIND
     &KIND Pm
       BASIS_SET DZVP-MOLOPT-SR-GTH
       POTENTIAL GTH-PBE-q15
     &END KIND
     &KIND Tm
       BASIS_SET DZVP-MOLOPT-SR-GTH
       POTENTIAL GTH-PBE-q23
     &END KIND
     &KIND F
       BASIS_SET DZVP-GTH-PADE
       POTENTIAL GTH-PBE-q7
       &POTENTIAL
 2 5
  0.2149295900000000E+00 2 -0.2157302836000000E+02  0.3199776150000000E+01
 2
  0.1946840200000000E+00 1  0.2374354045000000E+02
  0.1861560800000000E+00 0
         # Potential name:  GTH-PBE-Q7  for symbol:  F
         # Potential read from the potential filename: ../POTENTIAL
       &END POTENTIAL
     &END KIND
     &KIND S
       BASIS_SET DZVP-GTH-PADE
       POTENTIAL GTH-PBE-q6
     &END KIND
     &KIND Na
       BASIS_SET DZVP-GTH-PADE
       POTENTIAL GTH-PBE-q9
     &END KIND
     &KIND B
       BASIS_SET DZVP-GTH-PADE
       POTENTIAL GTH-PBE-q3
     &END KIND
     &KIND Cl
       BASIS_SET DZVP-GTH-PADE
       POTENTIAL GTH-PBE-q7
       &POTENTIAL
 2 5
  0.4100000000000000E+00 1 -0.6392081810000000E+01
 2
  0.3395386400000000E+00 2  0.1521898983000000E+02 -0.4934523210000000E+01
  0.6370442080000000E+01
  0.3784741600000000E+00 1  0.4338775270000000E+01
         # Potential name:  GTH-PBE-Q7  for symbol:  CL
         # Potential read from the potential filename: ../POTENTIAL
       &END POTENTIAL
     &END KIND
     &KIND H
       BASIS_SET DZVP-GTH-PADE
       POTENTIAL GTH-PBE-q1
       &POTENTIAL
 1
  0.2000000000000000E+00 2 -0.4178900440000000E+01  0.7244633100000000E+00
 0
         # Potential name:  GTH-PBE-Q1  for symbol:  H
         # Potential read from the potential filename: ../POTENTIAL
       &END POTENTIAL
     &END KIND
     &KIND N
       BASIS_SET DZVP-GTH-PADE
       POTENTIAL GTH-PBE-q5
       &POTENTIAL
 2 3
  0.2837905100000000E+00 2 -0.1241522559000000E+02  0.1868095920000000E+01
 2
  0.2554050000000000E+00 1  0.1363026257000000E+02
  0.2454945300000000E+00 0
         # Potential name:  GTH-PBE-Q5  for symbol:  N
         # Potential read from the potential filename: ../POTENTIAL
       &END POTENTIAL
     &END KIND
     &KIND O
       BASIS_SET DZVP-GTH-PADE
       POTENTIAL GTH-PBE-q6
       &POTENTIAL
 2 4
  0.2445543000000000E+00 2 -0.1666721480000000E+02  0.2487311320000000E+01
 2
  0.2209559200000000E+00 1  0.1833745811000000E+02
  0.2113324700000000E+00 0
         # Potential name:  GTH-PBE-Q6  for symbol:  O
         # Potential read from the potential filename: ../POTENTIAL
       &END POTENTIAL
     &END KIND
     &KIND C
       BASIS_SET DZVP-GTH-PADE
       POTENTIAL GTH-PBE-q4
       &POTENTIAL
 2 2
  0.3384712400000000E+00 2 -0.8803673979999999E+01  0.1339210850000000E+01
 2
  0.3025757500000000E+00 1  0.9622486650000001E+01
  0.2915069400000000E+00 0
         # Potential name:  GTH-PBE-Q4  for symbol:  C
         # Potential read from the potential filename: ../POTENTIAL
       &END POTENTIAL
     &END KIND
     &TOPOLOGY
       COORD_FILE_NAME ../../Dy_L10_L19_L21.xyz
       COORD_FILE_FORMAT  XYZ
       NUMBER_OF_ATOMS  113
       MULTIPLE_UNIT_CELL  1 1 1
     &END TOPOLOGY
   &END SUBSYS
 &END FORCE_EVAL
