 # Version information for this restart file 
 # current date 2023-04-08 06:45:15.023
 # current working dir /mnt/scratch2/users/40265864/MSc_ML_MM/ln_replacements/xyz/Dy_L10_L19_L21/geometry_optimisation_2/run-0
 # Program compiled at                              Mon 24 Oct 18:14:20 BST 2022
 # Program compiled on                          login1.pri.kelvin2.alces.network
 # Program compiled for                                                    local
 # Source code revision number                                         svn:17462
 &GLOBAL
   PRINT_LEVEL  LOW
   PROJECT_NAME dy_complex
   RUN_TYPE  GEO_OPT
 &END GLOBAL
 &MOTION
   &GEO_OPT
     TYPE  MINIMIZATION
     OPTIMIZER  BFGS
     MAX_ITER  100
     MAX_DR     1.0000000000000001E-01
     MAX_FORCE     1.0000000000000001E-01
     RMS_DR     1.0000000000000000E-02
     RMS_FORCE     1.0000000000000000E-02
     STEP_START_VAL  24
     &BFGS
       TRUST_RADIUS     2.9999999999999999E-01
     &END BFGS
   &END GEO_OPT
 &END MOTION
 &FORCE_EVAL
   METHOD  QS
   &DFT
     BASIS_SET_FILE_NAME ../BASIS_MOLOPT_UCL
     BASIS_SET_FILE_NAME BASIS_SET
     POTENTIAL_FILE_NAME ../POTENTIAL
     UKS  T
     MULTIPLICITY  0
     CHARGE  3
     &SCF
       MAX_SCF  200
       EPS_SCF     5.0000000000000002E-05
       SCF_GUESS  RESTART
       &OT  T
         MINIMIZER  DIIS
         PRECONDITIONER  FULL_SINGLE_INVERSE
       &END OT
     &END SCF
     &MGRID
       NGRIDS  4
       CUTOFF     5.0000000000000000E+02
       REL_CUTOFF     3.0000000000000000E+01
     &END MGRID
     &XC
       DENSITY_CUTOFF     1.0000000000000000E-10
       GRADIENT_CUTOFF     1.0000000000000000E-10
       TAU_CUTOFF     1.0000000000000000E-10
       &XC_FUNCTIONAL  NO_SHORTCUT
         &PBE  T
         &END PBE
       &END XC_FUNCTIONAL
     &END XC
   &END DFT
   &SUBSYS
     &CELL
       A     2.5000000000000004E+01    0.0000000000000000E+00    0.0000000000000000E+00
       B     0.0000000000000000E+00    2.5000000000000004E+01    0.0000000000000000E+00
       C     0.0000000000000000E+00    0.0000000000000000E+00    2.5000000000000004E+01
       PERIODIC  XYZ
       MULTIPLE_UNIT_CELL  1 1 1
     &END CELL
     &COORD
Cl   -2.2977002269583919E+00    1.6924483861343147E+00   -1.3274332364028453E+01
C   -1.5614227489367729E+00    1.1656995055935582E+00   -1.1817617381653401E+01
C   -4.6893747946238112E-01    1.9021934651440668E+00   -1.1281024776736441E+01
C    1.0817091120698571E-01    1.4900226151542160E+00   -1.0075921321863357E+01
C   -3.7276359216702543E-01    3.3560339747830858E-01   -9.3816798992172572E+00
C   -1.4733345797526998E+00   -3.8463226641413151E-01   -9.9483777513749256E+00
C   -2.0621086634313976E+00    1.7704489897022689E-02   -1.1150350597435907E+01
C    2.7419555070852425E-01   -1.1669887843463955E-01   -8.1298044949538060E+00
C    5.3325369564116154E-01    8.8789269057664644E-01   -7.1124491586847070E+00
C    3.3547829451607253E-02    2.2688431361622983E+00   -7.1012009480363982E+00
C    5.8679352836259702E-01    2.8834580232783895E+00   -6.0017752167883147E+00
C    1.4060811190344205E+00    1.8788976801804453E+00   -5.3236548347179573E+00
N    1.3197032709749321E+00    6.8096343652153224E-01   -6.0097781012481404E+00
Dy    2.7405425599718267E+00   -1.1190446290571354E+00   -5.6352270235820816E+00
N    1.0403365909676843E+00   -2.1379175833351676E+00   -6.8419589255755291E+00
C    5.9623792833498845E-01   -1.5216879474498275E+00   -8.0076675894660010E+00
C    4.7921543404726991E-01   -2.5145927877244310E+00   -9.0667053301957203E+00
C    7.7628799064873000E-01   -3.7398799312677626E+00   -8.5032979852200938E+00
C    1.1145472969542343E+00   -3.4926937252443948E+00   -7.1088836829820536E+00
C    1.5047503366217596E+00   -4.5125341708015503E+00   -6.1665361482027299E+00
C    2.1195715292981299E+00   -4.2964838661992202E+00   -4.8832274608935355E+00
N    2.4813033844669050E+00   -3.0577499296482280E+00   -4.3907504438274048E+00
C    3.2206517570072450E+00   -3.2709204902676308E+00   -3.2486962295215278E+00
C    3.2441329926910427E+00   -4.6998670729351826E+00   -2.9432939767816091E+00
C    2.5412917744302654E+00   -5.3325765229617899E+00   -3.9461623231333682E+00
C    3.9310286623513879E+00   -2.2506893496614873E+00   -2.5113858790657799E+00
C    3.7365438482575644E+00   -8.2886910069064135E-01   -2.6485756829358178E+00
N    2.8502409696996547E+00   -2.4635424223193403E-01   -3.5418873367440602E+00
C    2.9475557517455599E+00    1.1236089727814844E+00   -3.3965961121918338E+00
C    2.2179608813344993E+00    2.1050901241050308E+00   -4.1608729904067649E+00
C    2.3423927173918733E+00    3.5319263970687516E+00   -3.7187573628508810E+00
C    1.6533755264082384E+00    3.9741431757014225E+00   -2.5546879498873891E+00
C    1.7238749255112735E+00    5.3145776221192840E+00   -2.1533047798340754E+00
C    2.5333249722423528E+00    6.2182027774787363E+00   -2.8939462085943961E+00
C    3.2412996906317457E+00    5.7905207786444102E+00   -4.0497149825972487E+00
C    3.1240031606291070E+00    4.4577786243231623E+00   -4.4671950580263999E+00
Cl    2.6602088169487708E+00    7.8529800840829136E+00   -2.3847705751255965E+00
C    3.9568309323210906E+00    1.4278516728301098E+00   -2.3792347970641070E+00
C    4.4577100857620922E+00    2.2362534268021256E-01   -1.9343345558691327E+00
C    5.0524429121661916E+00   -2.7567439075575391E+00   -1.6684493769375279E+00
C    5.1570330836599823E+00   -2.5322855032545526E+00   -2.6567654302015770E-01
C    6.2157217668662543E+00   -3.0875676099910363E+00    4.6662229140726397E-01
C    7.2102741573276976E+00   -3.8555561677567987E+00   -2.0326635661975692E-01
C    7.1359996654391269E+00   -4.0746958793175532E+00   -1.6026608838011649E+00
C    6.0595454175502432E+00   -3.5400017042367469E+00   -2.3160816922854939E+00
Cl    8.5133478774113538E+00   -4.5211259067083320E+00    6.9060277739541154E-01
C    1.2309821789373898E+00   -5.9251137135462839E+00   -6.5511009366375577E+00
C   -1.0932468011225913E-01   -6.3485286868594226E+00   -6.8005955813655570E+00
C   -4.0022739666059759E-01   -7.6930481196395180E+00   -7.0600701699793040E+00
C    6.6032930281135782E-01   -8.6338833946434015E+00   -7.1071553176241338E+00
C    2.0108828976082060E+00   -8.2222078677407495E+00   -6.9346857258020842E+00
C    2.2847957353436215E+00   -6.8810375799975292E+00   -6.6420799638092882E+00
Cl    3.1260960261780119E-01   -1.0295472253806535E+01   -7.3656377964486168E+00
O    4.7164614840049308E-02   -6.0758459976314627E-01   -3.1430597872463930E+00
C   -5.1528805589402304E-01   -1.4957286612336240E+00   -2.4328908072967619E+00
C   -1.3786535225526588E+00   -2.4700020950302282E+00   -3.0244595388154285E+00
C   -1.5925257690050298E+00   -2.2020485262785234E+00   -4.4015111196079619E+00
O   -1.0359962996132526E+00   -1.2405486126849516E+00   -5.0085492886070284E+00
C   -2.5948223695295765E+00   -3.0322627695801172E+00   -5.2621476076784885E+00
F   -2.8452173157086991E+00   -4.2443216627469313E+00   -4.7101566519092009E+00
F   -3.7584001716327315E+00   -2.3550005398676186E+00   -5.3503295219162981E+00
F   -2.0920323273257879E+00   -3.2530706608333793E+00   -6.5155239920141064E+00
C   -3.5028204181033767E-01   -1.3739970350245128E+00   -9.1425371509779063E-01
C   -2.6917286405824281E-01   -2.6531465759237745E+00   -5.7368363443850427E-02
C    3.8663989625181328E-01   -2.1142751527468078E+00    1.2451791189468016E+00
C    9.8731846411054347E-01   -7.4225346956051352E-01    8.3568601120410690E-01
O    8.3286805090162519E-01   -6.2782184993303780E-01   -6.1209432965872457E-01
O    4.6046615393773642E+00   -2.2480250342534074E+00   -6.1507416452840200E+00
C    5.1560015878857968E+00   -2.2219369632954642E+00   -7.3156570717270490E+00
C    5.1823120488172112E+00   -1.1084156255090276E+00   -8.1877211679112829E+00
C    4.6966331712542368E+00    1.4994256035524831E-01   -7.7252002863249043E+00
O    4.1674577467896992E+00    3.8505167885159047E-01   -6.5860856728037751E+00
C    4.7520784135689480E+00    1.4005938419424782E+00   -8.6445301679147715E+00
F    4.5237541658123064E+00    1.0485539784110658E+00   -9.9391233658100742E+00
F    5.9476460766840180E+00    2.0160337495768053E+00   -8.5532585836660964E+00
F    3.7721657921068039E+00    2.2868929652745300E+00   -8.2609489355466330E+00
C    5.8443201913076868E+00   -3.5717785511798921E+00   -7.6381307945662646E+00
F    5.1402675608096482E+00   -4.5860302176562682E+00   -7.0387357224555345E+00
F    7.0923197611485422E+00   -3.5590363034412231E+00   -7.0989261426951273E+00
F    5.9172959624293622E+00   -3.8385382660423826E+00   -8.9679299856425239E+00
H   -8.4828195143596186E-02    2.7735283771079162E+00   -1.1816756926913961E+01
H    9.8135921197676945E-01    2.0269259141492908E+00   -9.6963913676221392E+00
H   -1.8877105902746383E+00   -1.2460510044340556E+00   -9.4188126390261626E+00
H   -2.9123936350760879E+00   -5.2409444457700849E-01   -1.1569698095628864E+01
H   -6.7139662044129422E-01    2.7055539240313444E+00   -7.8068636210314555E+00
H    4.2923022249935033E-01    3.9107964596412339E+00   -5.6774883193210828E+00
H    2.4539412903740915E-01   -2.3211560210686653E+00   -1.0111493096864537E+01
H    8.1975586299342362E-01   -4.7018837879203748E+00   -9.0111238933349966E+00
H    3.7121061260674990E+00   -5.1676421476509997E+00   -2.0785683510380020E+00
H    2.3335724855695807E+00   -6.3973980962756789E+00   -4.0245598651493415E+00
H    1.0296223544126915E+00    3.2766786716284684E+00   -1.9895800625649362E+00
H    1.1698383809473429E+00    5.6756267661912547E+00   -1.2840363787325340E+00
H    3.8665358257584135E+00    6.4956895868207729E+00   -4.6020181887788354E+00
H    3.6637005158241176E+00    4.1180191330154345E+00   -5.3550932961038376E+00
H    4.2837371204559824E+00    2.4228259587755749E+00   -2.0817537687297838E+00
H    5.2654187119955527E+00    7.7060960254460839E-02   -1.2193963985829330E+00
H    4.3849561032849653E+00   -1.9669929363965930E+00    2.6348554229982890E-01
H    6.2895602897915941E+00   -2.9473989070028521E+00    1.5479110141326211E+00
H    7.9140593101004031E+00   -4.6480355856352533E+00   -2.1111656337685329E+00
H    6.0040543839864959E+00   -3.6876682073627380E+00   -3.3981077127339616E+00
H   -9.2843850752433965E-01   -5.6256072331455735E+00   -6.7519301466292898E+00
H   -1.4294911070889822E+00   -8.0293365016108549E+00   -7.2017050787383701E+00
H    2.8194597564736861E+00   -8.9522606301378982E+00   -7.0208702703026971E+00
H    3.3220524681334793E+00   -6.5579282229519604E+00   -6.5230287852371820E+00
H   -1.8953830259577416E+00   -3.2468356654325676E+00   -2.4694863767744688E+00
H   -1.2422763567671398E+00   -7.7843336089489024E-01   -6.1335797475524501E-01
H   -1.2616710695365334E+00   -3.0919288207587372E+00    1.2156962250685675E-01
H    3.6757419282726966E-01   -3.4084787867612127E+00   -5.4639873238804315E-01
H   -3.6055654363664946E-01   -1.9863860341201536E+00    2.0414911427236797E+00
H    1.1540184385593786E+00   -2.8057643019397553E+00    1.6207143798554478E+00
H    4.4382960081261158E-01    9.8089192173060821E-02    1.3079934181795476E+00
H    2.0601910770619747E+00   -6.2721903427128989E-01    1.0545945633792166E+00
H    5.6232992834156086E+00   -1.2137396631176973E+00   -9.1794688593314930E+00
     &END COORD
     &KIND Dy
       BASIS_SET DZVP-MOLOPT-SR-GTH
       POTENTIAL GTH-PBE-q20
       &POTENTIAL
 4 6 0 10
  0.5102968700000000E+00 2  0.1767093508000000E+02 -0.8678777000000000E+00
 4
  0.4421234800000000E+00 2 -0.2715733840000000E+01  0.4017884260000000E+01
 -0.5187066270000000E+01
  0.4501723000000000E+00 2 -0.2773475350000000E+01  0.2201152450000000E+01
 -0.2604438700000000E+01
  0.4711651400000000E+00 1 -0.7522756100000000E+00
  0.2618074100000000E+00 1 -0.2424856414000000E+02
         # Potential name:  GTH-PBE-Q20  for symbol:  DY
         # Potential read from the potential filename: ../POTENTIAL
       &END POTENTIAL
     &END KIND
     &KIND Tb
       BASIS_SET DZVP-MOLOPT-SR-GTH
       POTENTIAL GTH-PBE-q19
     &END KIND
     &KIND Ho
       BASIS_SET DZVP-MOLOPT-SR-GTH
       POTENTIAL GTH-PBE-q21
     &END KIND
     &KIND Gd
       BASIS_SET DZVP-MOLOPT-SR-GTH
       POTENTIAL GTH-PBE-q18
     &END KIND
     &KIND Lu
       BASIS_SET DZVP-MOLOPT-SR-GTH
       POTENTIAL GTH-PBE-q25
     &END KIND
     &KIND Pm
       BASIS_SET DZVP-MOLOPT-SR-GTH
       POTENTIAL GTH-PBE-q15
     &END KIND
     &KIND Tm
       BASIS_SET DZVP-MOLOPT-SR-GTH
       POTENTIAL GTH-PBE-q23
     &END KIND
     &KIND F
       BASIS_SET DZVP-GTH-PADE
       POTENTIAL GTH-PBE-q7
       &POTENTIAL
 2 5
  0.2149295900000000E+00 2 -0.2157302836000000E+02  0.3199776150000000E+01
 2
  0.1946840200000000E+00 1  0.2374354045000000E+02
  0.1861560800000000E+00 0
         # Potential name:  GTH-PBE-Q7  for symbol:  F
         # Potential read from the potential filename: ../POTENTIAL
       &END POTENTIAL
     &END KIND
     &KIND S
       BASIS_SET DZVP-GTH-PADE
       POTENTIAL GTH-PBE-q6
     &END KIND
     &KIND Na
       BASIS_SET DZVP-GTH-PADE
       POTENTIAL GTH-PBE-q9
     &END KIND
     &KIND B
       BASIS_SET DZVP-GTH-PADE
       POTENTIAL GTH-PBE-q3
     &END KIND
     &KIND Cl
       BASIS_SET DZVP-GTH-PADE
       POTENTIAL GTH-PBE-q7
       &POTENTIAL
 2 5
  0.4100000000000000E+00 1 -0.6392081810000000E+01
 2
  0.3395386400000000E+00 2  0.1521898983000000E+02 -0.4934523210000000E+01
  0.6370442080000000E+01
  0.3784741600000000E+00 1  0.4338775270000000E+01
         # Potential name:  GTH-PBE-Q7  for symbol:  CL
         # Potential read from the potential filename: ../POTENTIAL
       &END POTENTIAL
     &END KIND
     &KIND H
       BASIS_SET DZVP-GTH-PADE
       POTENTIAL GTH-PBE-q1
       &POTENTIAL
 1
  0.2000000000000000E+00 2 -0.4178900440000000E+01  0.7244633100000000E+00
 0
         # Potential name:  GTH-PBE-Q1  for symbol:  H
         # Potential read from the potential filename: ../POTENTIAL
       &END POTENTIAL
     &END KIND
     &KIND N
       BASIS_SET DZVP-GTH-PADE
       POTENTIAL GTH-PBE-q5
       &POTENTIAL
 2 3
  0.2837905100000000E+00 2 -0.1241522559000000E+02  0.1868095920000000E+01
 2
  0.2554050000000000E+00 1  0.1363026257000000E+02
  0.2454945300000000E+00 0
         # Potential name:  GTH-PBE-Q5  for symbol:  N
         # Potential read from the potential filename: ../POTENTIAL
       &END POTENTIAL
     &END KIND
     &KIND O
       BASIS_SET DZVP-GTH-PADE
       POTENTIAL GTH-PBE-q6
       &POTENTIAL
 2 4
  0.2445543000000000E+00 2 -0.1666721480000000E+02  0.2487311320000000E+01
 2
  0.2209559200000000E+00 1  0.1833745811000000E+02
  0.2113324700000000E+00 0
         # Potential name:  GTH-PBE-Q6  for symbol:  O
         # Potential read from the potential filename: ../POTENTIAL
       &END POTENTIAL
     &END KIND
     &KIND C
       BASIS_SET DZVP-GTH-PADE
       POTENTIAL GTH-PBE-q4
       &POTENTIAL
 2 2
  0.3384712400000000E+00 2 -0.8803673979999999E+01  0.1339210850000000E+01
 2
  0.3025757500000000E+00 1  0.9622486650000001E+01
  0.2915069400000000E+00 0
         # Potential name:  GTH-PBE-Q4  for symbol:  C
         # Potential read from the potential filename: ../POTENTIAL
       &END POTENTIAL
     &END KIND
     &TOPOLOGY
       COORD_FILE_NAME ../../Dy_L10_L19_L21.xyz
       COORD_FILE_FORMAT  XYZ
       NUMBER_OF_ATOMS  113
       MULTIPLE_UNIT_CELL  1 1 1
     &END TOPOLOGY
   &END SUBSYS
 &END FORCE_EVAL
