 # Version information for this restart file 
 # current date 2023-04-08 04:44:48.222
 # current working dir /mnt/scratch2/users/40265864/MSc_ML_MM/ln_replacements/xyz/Dy_L10_L19_L21/geometry_optimisation_2/run-6
 # Program compiled at                              Mon 24 Oct 18:14:20 BST 2022
 # Program compiled on                          login1.pri.kelvin2.alces.network
 # Program compiled for                                                    local
 # Source code revision number                                         svn:17462
 &GLOBAL
   PRINT_LEVEL  LOW
   PROJECT_NAME dy_complex
   RUN_TYPE  GEO_OPT
 &END GLOBAL
 &MOTION
   &GEO_OPT
     TYPE  MINIMIZATION
     OPTIMIZER  BFGS
     MAX_ITER  100
     MAX_DR     1.0000000000000001E-01
     MAX_FORCE     1.0000000000000001E-01
     RMS_DR     1.0000000000000000E-02
     RMS_FORCE     1.0000000000000000E-02
     STEP_START_VAL  39
     &BFGS
       TRUST_RADIUS     2.9999999999999999E-01
     &END BFGS
   &END GEO_OPT
 &END MOTION
 &FORCE_EVAL
   METHOD  QS
   &DFT
     BASIS_SET_FILE_NAME ../BASIS_MOLOPT_UCL
     BASIS_SET_FILE_NAME BASIS_SET
     POTENTIAL_FILE_NAME ../POTENTIAL
     UKS  T
     MULTIPLICITY  6
     CHARGE  3
     &SCF
       MAX_SCF  200
       EPS_SCF     5.0000000000000002E-05
       SCF_GUESS  RESTART
       &OT  T
         MINIMIZER  DIIS
         PRECONDITIONER  FULL_SINGLE_INVERSE
       &END OT
     &END SCF
     &MGRID
       NGRIDS  4
       CUTOFF     5.0000000000000000E+02
       REL_CUTOFF     3.0000000000000000E+01
     &END MGRID
     &XC
       DENSITY_CUTOFF     1.0000000000000000E-10
       GRADIENT_CUTOFF     1.0000000000000000E-10
       TAU_CUTOFF     1.0000000000000000E-10
       &XC_FUNCTIONAL  NO_SHORTCUT
         &PBE  T
         &END PBE
       &END XC_FUNCTIONAL
     &END XC
   &END DFT
   &SUBSYS
     &CELL
       A     2.5000000000000004E+01    0.0000000000000000E+00    0.0000000000000000E+00
       B     0.0000000000000000E+00    2.5000000000000004E+01    0.0000000000000000E+00
       C     0.0000000000000000E+00    0.0000000000000000E+00    2.5000000000000004E+01
       PERIODIC  XYZ
       MULTIPLE_UNIT_CELL  1 1 1
     &END CELL
     &COORD
Cl   -2.2754306969983653E+00    1.7026566704097466E+00   -1.3274982833929661E+01
C   -1.5840722885726981E+00    1.1969309400275983E+00   -1.1791265105123397E+01
C   -4.7733558558627798E-01    1.9069123058416755E+00   -1.1253162999021281E+01
C    8.1755703509425529E-02    1.4921302724676098E+00   -1.0042583484753113E+01
C   -4.2704611038769974E-01    3.4763598731494910E-01   -9.3458746907587926E+00
C   -1.5564234719797181E+00   -3.3717630037283242E-01   -9.9028657314570090E+00
C   -2.1319342856988124E+00    8.0323055144740474E-02   -1.1104624367976045E+01
C    2.2197562217081529E-01   -1.1164849933524582E-01   -8.1093426216439575E+00
C    5.6452827439585640E-01    9.0580335631493503E-01   -7.1287962753426308E+00
C    9.9044065227347655E-02    2.2922653737554897E+00   -7.1414048200250200E+00
C    6.4592837015384086E-01    2.9039426460210165E+00   -6.0348179309308430E+00
C    1.4293453303407895E+00    1.8880071404235574E+00   -5.3415094800376046E+00
N    1.3449482508215866E+00    6.8939475869757028E-01   -6.0234436667743338E+00
Dy    2.8388879414762500E+00   -1.0813642632723861E+00   -5.7379645011849858E+00
N    1.0317825326726655E+00   -2.1278797388112825E+00   -6.8295244686311243E+00
C    4.9203088222716329E-01   -1.5259277322226870E+00   -7.9588424319861408E+00
C    2.1351748254278791E-01   -2.5392691484791379E+00   -8.9679680397699286E+00
C    5.3871587626020456E-01   -3.7607370622297229E+00   -8.4129706173903340E+00
C    1.0416377834507813E+00   -3.4926980790235236E+00   -7.0762948211448649E+00
C    1.5105737490520204E+00   -4.5162418979666628E+00   -6.1733500976041453E+00
C    2.2394320662597842E+00   -4.2906127230368787E+00   -4.9432835262889920E+00
N    2.6121927330436270E+00   -3.0471934690393816E+00   -4.4764107579025874E+00
C    3.3494015938065758E+00   -3.2526975065018231E+00   -3.3312207657799195E+00
C    3.3938733279079485E+00   -4.6740733727585813E+00   -3.0208929568785510E+00
C    2.6888893490235852E+00   -5.3186464189649483E+00   -4.0165053781655331E+00
C    3.9808211627483958E+00   -2.2223506562700162E+00   -2.5317586231439249E+00
C    3.6677941270736181E+00   -8.1068171289189672E-01   -2.5967945949904880E+00
N    2.8458839575399790E+00   -2.4666048922957567E-01   -3.5563464089858341E+00
C    2.8089149689716502E+00    1.1145125540182679E+00   -3.3076301300427429E+00
C    2.1588241325897135E+00    2.1070867065512329E+00   -4.1255504266229845E+00
C    2.3045523207982099E+00    3.5179593831082836E+00   -3.6931625752376704E+00
C    1.7667988027684902E+00    3.9582916724708834E+00   -2.4525872475196175E+00
C    1.8700953172147592E+00    5.3036783444731510E+00   -2.0781603567645410E+00
C    2.5711791608908157E+00    6.2116334840333609E+00   -2.9180183882462121E+00
C    3.1498077294622036E+00    5.7776864953535316E+00   -4.1366213574425883E+00
C    2.9863753161379991E+00    4.4453420522962759E+00   -4.5356784474960170E+00
Cl    2.7248079274021335E+00    7.8542780649812940E+00   -2.4366233253308414E+00
C    3.6415116581613058E+00    1.4252173030860362E+00   -2.1484448988093212E+00
C    4.1919258562560673E+00    2.3936722087415491E-01   -1.7216949294269173E+00
C    5.0798709479240474E+00   -2.6919036796247688E+00   -1.6771430195449051E+00
C    5.2230478272177692E+00   -2.3287831541018322E+00   -3.0502626579942776E-01
C    6.2602737052091344E+00   -2.8559489347725617E+00    4.6783365579956138E-01
C    7.2019942595517632E+00   -3.7432613934949059E+00   -1.2390743297371727E-01
C    7.1028596083352458E+00   -4.0914927752475432E+00   -1.4948055641168179E+00
C    6.0487667368646871E+00   -3.5784189580399217E+00   -2.2529973739085882E+00
Cl    8.4629999818995820E+00   -4.3985463086137973E+00    8.3219601665006115E-01
C    1.2349609879207779E+00   -5.9139045710093487E+00   -6.5464907042778995E+00
C   -9.5386435937398914E-02   -6.3154229798926522E+00   -6.8868535409282359E+00
C   -3.8481635498560007E-01   -7.6485226253708527E+00   -7.1923088908527255E+00
C    6.6432804922501587E-01   -8.6033179389316992E+00   -7.2049728490112148E+00
C    2.0007420278786965E+00   -8.2198499419368165E+00   -6.9127732617182422E+00
C    2.2747859500674066E+00   -6.8932277854823321E+00   -6.5690880470674040E+00
Cl    3.1398260778962794E-01   -1.0241945877482294E+01   -7.5775884209393336E+00
O   -1.1020216035310319E-01   -5.2677247184766585E-01   -3.0406951448062798E+00
C   -6.5790942868969082E-01   -1.4226352157492670E+00   -2.3221737109746718E+00
C   -1.5719527111781078E+00   -2.3615500073167426E+00   -2.8782055124367933E+00
C   -1.8214720008117260E+00   -2.1044776725553413E+00   -4.2456008400411624E+00
O   -1.2382920241918041E+00   -1.1876147010704534E+00   -4.8947772617954852E+00
C   -2.9368332898232463E+00   -2.8946842580235241E+00   -4.9927715060643045E+00
F   -3.0698364310806694E+00   -4.1541537412603624E+00   -4.4978495761431398E+00
F   -4.1028498306645975E+00   -2.2247751224315655E+00   -4.8516620592914519E+00
F   -2.6657708510299205E+00   -2.9871707386160247E+00   -6.3206697997608634E+00
C   -4.0827832215966559E-01   -1.3576899591758531E+00   -8.0837369761297362E-01
C   -3.0415229250931919E-01   -2.6688525092029631E+00   -8.1794532941419102E-03
C    3.4357157894325729E-01   -2.1679713812613195E+00    1.3104780013362358E+00
C    9.9583379354609203E-01   -8.1496955861256382E-01    9.1356314210135747E-01
O    8.0644585341092823E-01   -6.4926868203673760E-01   -5.2638865436143301E-01
O    4.5701908375229037E+00   -2.3004014176009808E+00   -6.5227137299531508E+00
C    5.3111033445059608E+00   -2.1394788967211134E+00   -7.5623630375286597E+00
C    5.4167738867025683E+00   -9.6174427204364266E-01   -8.3377313615801647E+00
C    4.7686402247199817E+00    2.2921654698711391E-01   -7.9342100968484868E+00
O    4.0614759688439808E+00    4.0561700170763981E-01   -6.8764192083777500E+00
C    4.8805571012636815E+00    1.4997836267759410E+00   -8.8096973742430649E+00
F    5.2326374945253473E+00    1.1858150977668480E+00   -1.0077934408091366E+01
F    5.7736573098839976E+00    2.3650454035002468E+00   -8.2693215369260411E+00
F    3.6846490205115883E+00    2.1580803816609451E+00   -8.8331862402836911E+00
C    6.1495900404553439E+00   -3.3857702065934339E+00   -7.9507044038241270E+00
F    5.5077123471474438E+00   -4.5236367101922585E+00   -7.5603420300384609E+00
F    7.3523818684216220E+00   -3.3371214823879951E+00   -7.3010114021515760E+00
F    6.3248472521484187E+00   -3.4678169942015127E+00   -9.2883885405507129E+00
H   -6.2800503393536891E-02    2.7584839978811941E+00   -1.1796731444295023E+01
H    9.6572391504408150E-01    2.0103377796463082E+00   -9.6633199238430763E+00
H   -2.0179213250153492E+00   -1.1593688422008743E+00   -9.3508006108721933E+00
H   -3.0069665673040977E+00   -4.3081732598908884E-01   -1.1512045052846346E+01
H   -5.9816723577066500E-01    2.7344098610846972E+00   -7.8490541833966248E+00
H    4.8543917976502587E-01    3.9264585176959597E+00   -5.7017497526838410E+00
H   -1.2366755468941698E-01   -2.3671658847472061E+00   -9.9864457461044491E+00
H    4.9728645326035609E-01   -4.7290177003981073E+00   -8.9054045928124363E+00
H    3.8521358561911954E+00   -5.1302985319937511E+00   -2.1469888483122630E+00
H    2.4860935199527248E+00   -6.3836069187825384E+00   -4.0771745803270738E+00
H    1.2168161549573930E+00    3.2576598705330553E+00   -1.8185372974279312E+00
H    1.4159039897329395E+00    5.6609025089625939E+00   -1.1513006286029883E+00
H    3.7205376046276273E+00    6.4776849343968808E+00   -4.7507246667801635E+00
H    3.4407067075492508E+00    4.1000098887694651E+00   -5.4692178507157285E+00
H    3.8315887027252562E+00    2.4144926139082985E+00   -1.7380453832671163E+00
H    4.9151448355607865E+00    1.2264635751988671E-01   -9.1923687370321616E-01
H    4.4714266728685672E+00   -1.6965029205502040E+00    1.7307945595206056E-01
H    6.3466019494802826E+00   -2.6079404491914193E+00    1.5276580942635503E+00
H    7.8479283366821493E+00   -4.7479494302830236E+00   -1.9483742553205390E+00
H    5.9929369556526400E+00   -3.8161573237112774E+00   -3.3193360372229463E+00
H   -9.0924177779553716E-01   -5.5867768327917569E+00   -6.8440576714466230E+00
H   -1.4093880860734886E+00   -7.9616293647376661E+00   -7.4063687446813287E+00
H    2.8018359656522924E+00   -8.9599086347483254E+00   -6.9648090197774186E+00
H    3.3091976693270464E+00   -6.5912803240988183E+00   -6.3866207396220540E+00
H   -2.0526495104304385E+00   -3.1544740182374755E+00   -2.3091181705655281E+00
H   -1.2760144548005781E+00   -7.6205964646054758E-01   -4.3822865830580487E-01
H   -1.2783504793494962E+00   -3.1502280950152013E+00    1.5698581118788257E-01
H    3.5173244822463379E-01   -3.3807865116287017E+00   -5.3570231511935040E-01
H   -4.1782113742735894E-01   -2.0156485043810166E+00    2.0881968945887088E+00
H    1.0812864304426846E+00   -2.8842456425340548E+00    1.6961674130923587E+00
H    5.0735680673352834E-01    3.7904790141247903E-02    1.4229718202368555E+00
H    2.0774532825226446E+00   -7.5203892488697022E-01    1.1012162939735761E+00
H    6.0172891615137667E+00   -9.7449910274013574E-01   -9.2429543400253973E+00
     &END COORD
     &KIND Dy
       BASIS_SET DZVP-MOLOPT-SR-GTH
       POTENTIAL GTH-PBE-q20
       &POTENTIAL
 4 6 0 10
  0.5102968700000000E+00 2  0.1767093508000000E+02 -0.8678777000000000E+00
 4
  0.4421234800000000E+00 2 -0.2715733840000000E+01  0.4017884260000000E+01
 -0.5187066270000000E+01
  0.4501723000000000E+00 2 -0.2773475350000000E+01  0.2201152450000000E+01
 -0.2604438700000000E+01
  0.4711651400000000E+00 1 -0.7522756100000000E+00
  0.2618074100000000E+00 1 -0.2424856414000000E+02
         # Potential name:  GTH-PBE-Q20  for symbol:  DY
         # Potential read from the potential filename: ../POTENTIAL
       &END POTENTIAL
     &END KIND
     &KIND Tb
       BASIS_SET DZVP-MOLOPT-SR-GTH
       POTENTIAL GTH-PBE-q19
     &END KIND
     &KIND Ho
       BASIS_SET DZVP-MOLOPT-SR-GTH
       POTENTIAL GTH-PBE-q21
     &END KIND
     &KIND Gd
       BASIS_SET DZVP-MOLOPT-SR-GTH
       POTENTIAL GTH-PBE-q18
     &END KIND
     &KIND Lu
       BASIS_SET DZVP-MOLOPT-SR-GTH
       POTENTIAL GTH-PBE-q25
     &END KIND
     &KIND Pm
       BASIS_SET DZVP-MOLOPT-SR-GTH
       POTENTIAL GTH-PBE-q15
     &END KIND
     &KIND Tm
       BASIS_SET DZVP-MOLOPT-SR-GTH
       POTENTIAL GTH-PBE-q23
     &END KIND
     &KIND F
       BASIS_SET DZVP-GTH-PADE
       POTENTIAL GTH-PBE-q7
       &POTENTIAL
 2 5
  0.2149295900000000E+00 2 -0.2157302836000000E+02  0.3199776150000000E+01
 2
  0.1946840200000000E+00 1  0.2374354045000000E+02
  0.1861560800000000E+00 0
         # Potential name:  GTH-PBE-Q7  for symbol:  F
         # Potential read from the potential filename: ../POTENTIAL
       &END POTENTIAL
     &END KIND
     &KIND S
       BASIS_SET DZVP-GTH-PADE
       POTENTIAL GTH-PBE-q6
     &END KIND
     &KIND Na
       BASIS_SET DZVP-GTH-PADE
       POTENTIAL GTH-PBE-q9
     &END KIND
     &KIND B
       BASIS_SET DZVP-GTH-PADE
       POTENTIAL GTH-PBE-q3
     &END KIND
     &KIND Cl
       BASIS_SET DZVP-GTH-PADE
       POTENTIAL GTH-PBE-q7
       &POTENTIAL
 2 5
  0.4100000000000000E+00 1 -0.6392081810000000E+01
 2
  0.3395386400000000E+00 2  0.1521898983000000E+02 -0.4934523210000000E+01
  0.6370442080000000E+01
  0.3784741600000000E+00 1  0.4338775270000000E+01
         # Potential name:  GTH-PBE-Q7  for symbol:  CL
         # Potential read from the potential filename: ../POTENTIAL
       &END POTENTIAL
     &END KIND
     &KIND H
       BASIS_SET DZVP-GTH-PADE
       POTENTIAL GTH-PBE-q1
       &POTENTIAL
 1
  0.2000000000000000E+00 2 -0.4178900440000000E+01  0.7244633100000000E+00
 0
         # Potential name:  GTH-PBE-Q1  for symbol:  H
         # Potential read from the potential filename: ../POTENTIAL
       &END POTENTIAL
     &END KIND
     &KIND N
       BASIS_SET DZVP-GTH-PADE
       POTENTIAL GTH-PBE-q5
       &POTENTIAL
 2 3
  0.2837905100000000E+00 2 -0.1241522559000000E+02  0.1868095920000000E+01
 2
  0.2554050000000000E+00 1  0.1363026257000000E+02
  0.2454945300000000E+00 0
         # Potential name:  GTH-PBE-Q5  for symbol:  N
         # Potential read from the potential filename: ../POTENTIAL
       &END POTENTIAL
     &END KIND
     &KIND O
       BASIS_SET DZVP-GTH-PADE
       POTENTIAL GTH-PBE-q6
       &POTENTIAL
 2 4
  0.2445543000000000E+00 2 -0.1666721480000000E+02  0.2487311320000000E+01
 2
  0.2209559200000000E+00 1  0.1833745811000000E+02
  0.2113324700000000E+00 0
         # Potential name:  GTH-PBE-Q6  for symbol:  O
         # Potential read from the potential filename: ../POTENTIAL
       &END POTENTIAL
     &END KIND
     &KIND C
       BASIS_SET DZVP-GTH-PADE
       POTENTIAL GTH-PBE-q4
       &POTENTIAL
 2 2
  0.3384712400000000E+00 2 -0.8803673979999999E+01  0.1339210850000000E+01
 2
  0.3025757500000000E+00 1  0.9622486650000001E+01
  0.2915069400000000E+00 0
         # Potential name:  GTH-PBE-Q4  for symbol:  C
         # Potential read from the potential filename: ../POTENTIAL
       &END POTENTIAL
     &END KIND
     &TOPOLOGY
       COORD_FILE_NAME ../../Dy_L10_L19_L21.xyz
       COORD_FILE_FORMAT  XYZ
       NUMBER_OF_ATOMS  113
       MULTIPLE_UNIT_CELL  1 1 1
     &END TOPOLOGY
   &END SUBSYS
 &END FORCE_EVAL
