 # Version information for this restart file 
 # current date 2023-04-08 04:45:44.078
 # current working dir /mnt/scratch2/users/40265864/MSc_ML_MM/ln_replacements/xyz/Dy_L10_L19_L21/geometry_optimisation_2/run-6
 # Program compiled at                              Mon 24 Oct 18:14:20 BST 2022
 # Program compiled on                          login1.pri.kelvin2.alces.network
 # Program compiled for                                                    local
 # Source code revision number                                         svn:17462
 &GLOBAL
   PRINT_LEVEL  LOW
   PROJECT_NAME dy_complex
   RUN_TYPE  GEO_OPT
 &END GLOBAL
 &MOTION
   &GEO_OPT
     TYPE  MINIMIZATION
     OPTIMIZER  BFGS
     MAX_ITER  100
     MAX_DR     1.0000000000000001E-01
     MAX_FORCE     1.0000000000000001E-01
     RMS_DR     1.0000000000000000E-02
     RMS_FORCE     1.0000000000000000E-02
     STEP_START_VAL  40
     &BFGS
       TRUST_RADIUS     2.9999999999999999E-01
     &END BFGS
   &END GEO_OPT
 &END MOTION
 &FORCE_EVAL
   METHOD  QS
   &DFT
     BASIS_SET_FILE_NAME ../BASIS_MOLOPT_UCL
     BASIS_SET_FILE_NAME BASIS_SET
     POTENTIAL_FILE_NAME ../POTENTIAL
     UKS  T
     MULTIPLICITY  6
     CHARGE  3
     &SCF
       MAX_SCF  200
       EPS_SCF     5.0000000000000002E-05
       SCF_GUESS  RESTART
       &OT  T
         MINIMIZER  DIIS
         PRECONDITIONER  FULL_SINGLE_INVERSE
       &END OT
     &END SCF
     &MGRID
       NGRIDS  4
       CUTOFF     5.0000000000000000E+02
       REL_CUTOFF     3.0000000000000000E+01
     &END MGRID
     &XC
       DENSITY_CUTOFF     1.0000000000000000E-10
       GRADIENT_CUTOFF     1.0000000000000000E-10
       TAU_CUTOFF     1.0000000000000000E-10
       &XC_FUNCTIONAL  NO_SHORTCUT
         &PBE  T
         &END PBE
       &END XC_FUNCTIONAL
     &END XC
   &END DFT
   &SUBSYS
     &CELL
       A     2.5000000000000004E+01    0.0000000000000000E+00    0.0000000000000000E+00
       B     0.0000000000000000E+00    2.5000000000000004E+01    0.0000000000000000E+00
       C     0.0000000000000000E+00    0.0000000000000000E+00    2.5000000000000004E+01
       PERIODIC  XYZ
       MULTIPLE_UNIT_CELL  1 1 1
     &END CELL
     &COORD
Cl   -2.2729367803240716E+00    1.6948153648773090E+00   -1.3268731838706726E+01
C   -1.5822783813365231E+00    1.1943522143986727E+00   -1.1782641413584997E+01
C   -4.6609215292068468E-01    1.8979600038443540E+00   -1.1254843181001064E+01
C    9.1752510590474692E-02    1.4907047998603999E+00   -1.0041153773277097E+01
C   -4.2060418445611153E-01    3.4817748107583185E-01   -9.3446023803048774E+00
C   -1.5547735335580413E+00   -3.3385719072323078E-01   -9.8906598771570682E+00
C   -2.1387765241446370E+00    8.7424411754958659E-02   -1.1086056608976996E+01
C    2.4412759021823108E-01   -1.0342995463258531E-01   -8.1172938800966143E+00
C    5.6356958313474048E-01    9.0714088403542004E-01   -7.1259222449572386E+00
C    7.2882053693309551E-02    2.2872459081271868E+00   -7.1268640422509684E+00
C    6.1516624912712958E-01    2.8954369331450027E+00   -6.0153937401006194E+00
C    1.4240391277245690E+00    1.8840044295196634E+00   -5.3393322572644069E+00
N    1.3481130097936560E+00    6.8645526252148792E-01   -6.0254730506498744E+00
Dy    2.7990905956251049E+00   -1.0851059092726751E+00   -5.7053966214067877E+00
N    1.0665852348484768E+00   -2.1243494841142843E+00   -6.8525247317168958E+00
C    5.0484193887910955E-01   -1.5244846365020031E+00   -7.9731058555173240E+00
C    2.3726363593913849E-01   -2.5380571471802140E+00   -8.9842798223398059E+00
C    5.6597475786786267E-01   -3.7596660204908523E+00   -8.4316581085377962E+00
C    1.0606280443720077E+00   -3.4909916706143473E+00   -7.0913047666209392E+00
C    1.5327065871991064E+00   -4.5167153330196861E+00   -6.1828465053354220E+00
C    2.2351657530213269E+00   -4.2890212523928888E+00   -4.9422909587631745E+00
N    2.6330575213675633E+00   -3.0481263637878055E+00   -4.4881268677719852E+00
C    3.3464365142588304E+00   -3.2513152953840052E+00   -3.3287815554623226E+00
C    3.3610140112534435E+00   -4.6773049199687584E+00   -2.9990593853286351E+00
C    2.6516017743984932E+00   -5.3215125583097098E+00   -3.9932625299097708E+00
C    4.0019281758875902E+00   -2.2257985207155495E+00   -2.5517120226624916E+00
C    3.6856054228953754E+00   -8.1038562122296975E-01   -2.6055936142464584E+00
N    2.8683339512576844E+00   -2.4511719084565303E-01   -3.5650391929244121E+00
C    2.8230184091938941E+00    1.1156293362288818E+00   -3.3161899242167081E+00
C    2.1587310530803396E+00    2.1061062459600994E+00   -4.1281473839332241E+00
C    2.2995198979886879E+00    3.5160766186489809E+00   -3.6875247774844166E+00
C    1.7665177269917240E+00    3.9599814767222146E+00   -2.4457892757675088E+00
C    1.8696179729514817E+00    5.3057216189717478E+00   -2.0722061354883987E+00
C    2.5704607304505367E+00    6.2099082010734570E+00   -2.9173017661844916E+00
C    3.1495167518692289E+00    5.7738884193968376E+00   -4.1352523818020019E+00
C    2.9846552595020910E+00    4.4407248912433630E+00   -4.5291711275279063E+00
Cl    2.7194419556138905E+00    7.8556873873711757E+00   -2.4440636754888669E+00
C    3.6545920944121222E+00    1.4237691452845713E+00   -2.1567319322898171E+00
C    4.2127808412682093E+00    2.3974248063853937E-01   -1.7344427427885227E+00
C    5.0835969987268754E+00   -2.6981496765912429E+00   -1.6741545792212604E+00
C    5.2210149231797089E+00   -2.3396934370877838E+00   -2.9863917421604425E-01
C    6.2550588961458820E+00   -2.8705182795091786E+00    4.7649763395709399E-01
C    7.2077184727867420E+00   -3.7424473142550916E+00   -1.2199827380631888E-01
C    7.1219170885557315E+00   -4.0742974645410852E+00   -1.4974962969682128E+00
C    6.0582180359358055E+00   -3.5762899086159456E+00   -2.2533831340499852E+00
Cl    8.4698958146238290E+00   -4.3941294666915685E+00    8.3526945350192328E-01
C    1.2374689174499156E+00   -5.9126752611964699E+00   -6.5450046818231709E+00
C   -9.6273438614591811E-02   -6.3105625222037007E+00   -6.8725658234895812E+00
C   -3.8769902903965880E-01   -7.6435818890256737E+00   -7.1752947009383803E+00
C    6.6362044921164665E-01   -8.5970334004753717E+00   -7.2023988925312743E+00
C    2.0012959310253069E+00   -8.2154571088863246E+00   -6.9152044886923267E+00
C    2.2781441135096925E+00   -6.8903283032928657E+00   -6.5682686678005373E+00
Cl    3.1641292422429523E-01   -1.0234241683416144E+01   -7.5866759765750551E+00
O   -1.0272784584467060E-01   -5.2076329297995516E-01   -3.0424840130548545E+00
C   -6.5344869541333184E-01   -1.4093201246451408E+00   -2.3254880556498012E+00
C   -1.5659103658361078E+00   -2.3493898979098167E+00   -2.8855436788370685E+00
C   -1.8040075468194237E+00   -2.0894724155502149E+00   -4.2562571619206055E+00
O   -1.2284218813079892E+00   -1.1801673300706688E+00   -4.9189529307989863E+00
C   -2.9117837603609975E+00   -2.8928983741839986E+00   -5.0125298276030010E+00
F   -3.0211174364349236E+00   -4.1590572142554025E+00   -4.5207641864361836E+00
F   -4.0883532325126009E+00   -2.2355165691759922E+00   -4.8733462369173930E+00
F   -2.6081992878506739E+00   -2.9758586759471952E+00   -6.3380899000824593E+00
C   -4.0995550348337761E-01   -1.3585319664243336E+00   -8.1081009509892510E-01
C   -3.0073284505135939E-01   -2.6667449913722514E+00   -6.5810444519811455E-03
C    3.5111136217096028E-01   -2.1621514478579309E+00    1.3098556828745376E+00
C    1.0025371745148974E+00   -8.0840532090534734E-01    9.1295131942883989E-01
O    8.0750478377132251E-01   -6.5113338002098986E-01   -5.2956094909856866E-01
O    4.5579446117815827E+00   -2.2884313924012241E+00   -6.5223059451985730E+00
C    5.3053986984402020E+00   -2.1463770222767407E+00   -7.5539371398284842E+00
C    5.4056642659588547E+00   -9.7085824462215131E-01   -8.3284412394325731E+00
C    4.7719746856509335E+00    2.2791752316496797E-01   -7.9229354402649150E+00
O    4.0675957015145752E+00    4.0387932031645596E-01   -6.8621753390765061E+00
C    4.8794794486972384E+00    1.4941145626500638E+00   -8.8064915663931824E+00
F    5.2229398033866685E+00    1.1882074274274208E+00   -1.0081008627205412E+01
F    5.7799693903776337E+00    2.3645809598632677E+00   -8.2810398159054373E+00
F    3.6522178830164940E+00    2.1263162722531272E+00   -8.8215262482408647E+00
C    6.1467372983349025E+00   -3.3879250924417303E+00   -7.9525457885035316E+00
F    5.4846310753031844E+00   -4.5189912620290338E+00   -7.5694058901915637E+00
F    7.3561007075673803E+00   -3.3409271130438429E+00   -7.3161059581552399E+00
F    6.3424013343103169E+00   -3.4661771597975748E+00   -9.2902183731134098E+00
H   -4.4322122004701009E-02    2.7420274646102869E+00   -1.1806301050492500E+01
H    9.7988463396193748E-01    2.0051120152296815E+00   -9.6644038550305975E+00
H   -2.0167686774579918E+00   -1.1492626757792281E+00   -9.3285595148413876E+00
H   -3.0212236033530790E+00   -4.1824595859777869E-01   -1.1485616176411634E+01
H   -6.3332957788402955E-01    2.7237679817640119E+00   -7.8312734756407707E+00
H    4.3904010971749707E-01    3.9162147788027046E+00   -5.6757302485723811E+00
H   -1.0823992924167748E-01   -2.3651486325057269E+00   -1.0001349488416373E+01
H    5.1920289050359691E-01   -4.7285065751409068E+00   -8.9267267682292371E+00
H    3.7976890725148187E+00   -5.1308310277242235E+00   -2.1079532271388972E+00
H    2.4099931766675784E+00   -6.3849316682771002E+00   -4.0380057559907101E+00
H    1.2176363019501824E+00    3.2609382325625953E+00   -1.8087597814244221E+00
H    1.4135214819640520E+00    5.6672571400751250E+00   -1.1488578423148526E+00
H    3.7227150413910928E+00    6.4715703679762830E+00   -4.7494007365464421E+00
H    3.4366532649529193E+00    4.0917502254526088E+00   -5.4619083099757821E+00
H    3.8415831363334898E+00    2.4155585969305222E+00   -1.7528452648202317E+00
H    4.9320958161361723E+00    1.2027353096133875E-01   -9.2876314008629035E-01
H    4.4617564335886533E+00   -1.7180092647052008E+00    1.7941266842008630E-01
H    6.3309215797283276E+00   -2.6357176258036326E+00    1.5403673397182771E+00
H    7.8786920900662096E+00   -4.7181560631210360E+00   -1.9544345355172463E+00
H    6.0072243357165629E+00   -3.8081087650951240E+00   -3.3203053186155271E+00
H   -9.1071800683803361E-01   -5.5826867808355365E+00   -6.8162701249258681E+00
H   -1.4131111461574097E+00   -7.9593526960217345E+00   -7.3792987907948389E+00
H    2.8040794269950116E+00   -8.9526649451448712E+00   -6.9782591773353717E+00
H    3.3117383898280659E+00   -6.5836705928185726E+00   -6.3879189734740542E+00
H   -2.0577791151146596E+00   -3.1451152872637822E+00   -2.3271374143498798E+00
H   -1.2675860591263171E+00   -7.5263977848964325E-01   -4.2692758261271274E-01
H   -1.2744137406907792E+00   -3.1470573680244063E+00    1.5882926388191959E-01
H    3.5615773580525389E-01   -3.3765383608216823E+00   -5.3481136617329073E-01
H   -4.0735664024867579E-01   -2.0110149175924170E+00    2.0915377036815710E+00
H    1.0877277276696808E+00   -2.8799354712009655E+00    1.6963638433862500E+00
H    5.0927328384235859E-01    4.4103485885705798E-02    1.4172713325262489E+00
H    2.0848734267770328E+00   -7.4559497926257623E-01    1.1025775476078483E+00
H    6.0100327829611695E+00   -9.8849434961521421E-01   -9.2371028645744353E+00
     &END COORD
     &KIND Dy
       BASIS_SET DZVP-MOLOPT-SR-GTH
       POTENTIAL GTH-PBE-q20
       &POTENTIAL
 4 6 0 10
  0.5102968700000000E+00 2  0.1767093508000000E+02 -0.8678777000000000E+00
 4
  0.4421234800000000E+00 2 -0.2715733840000000E+01  0.4017884260000000E+01
 -0.5187066270000000E+01
  0.4501723000000000E+00 2 -0.2773475350000000E+01  0.2201152450000000E+01
 -0.2604438700000000E+01
  0.4711651400000000E+00 1 -0.7522756100000000E+00
  0.2618074100000000E+00 1 -0.2424856414000000E+02
         # Potential name:  GTH-PBE-Q20  for symbol:  DY
         # Potential read from the potential filename: ../POTENTIAL
       &END POTENTIAL
     &END KIND
     &KIND Tb
       BASIS_SET DZVP-MOLOPT-SR-GTH
       POTENTIAL GTH-PBE-q19
     &END KIND
     &KIND Ho
       BASIS_SET DZVP-MOLOPT-SR-GTH
       POTENTIAL GTH-PBE-q21
     &END KIND
     &KIND Gd
       BASIS_SET DZVP-MOLOPT-SR-GTH
       POTENTIAL GTH-PBE-q18
     &END KIND
     &KIND Lu
       BASIS_SET DZVP-MOLOPT-SR-GTH
       POTENTIAL GTH-PBE-q25
     &END KIND
     &KIND Pm
       BASIS_SET DZVP-MOLOPT-SR-GTH
       POTENTIAL GTH-PBE-q15
     &END KIND
     &KIND Tm
       BASIS_SET DZVP-MOLOPT-SR-GTH
       POTENTIAL GTH-PBE-q23
     &END KIND
     &KIND F
       BASIS_SET DZVP-GTH-PADE
       POTENTIAL GTH-PBE-q7
       &POTENTIAL
 2 5
  0.2149295900000000E+00 2 -0.2157302836000000E+02  0.3199776150000000E+01
 2
  0.1946840200000000E+00 1  0.2374354045000000E+02
  0.1861560800000000E+00 0
         # Potential name:  GTH-PBE-Q7  for symbol:  F
         # Potential read from the potential filename: ../POTENTIAL
       &END POTENTIAL
     &END KIND
     &KIND S
       BASIS_SET DZVP-GTH-PADE
       POTENTIAL GTH-PBE-q6
     &END KIND
     &KIND Na
       BASIS_SET DZVP-GTH-PADE
       POTENTIAL GTH-PBE-q9
     &END KIND
     &KIND B
       BASIS_SET DZVP-GTH-PADE
       POTENTIAL GTH-PBE-q3
     &END KIND
     &KIND Cl
       BASIS_SET DZVP-GTH-PADE
       POTENTIAL GTH-PBE-q7
       &POTENTIAL
 2 5
  0.4100000000000000E+00 1 -0.6392081810000000E+01
 2
  0.3395386400000000E+00 2  0.1521898983000000E+02 -0.4934523210000000E+01
  0.6370442080000000E+01
  0.3784741600000000E+00 1  0.4338775270000000E+01
         # Potential name:  GTH-PBE-Q7  for symbol:  CL
         # Potential read from the potential filename: ../POTENTIAL
       &END POTENTIAL
     &END KIND
     &KIND H
       BASIS_SET DZVP-GTH-PADE
       POTENTIAL GTH-PBE-q1
       &POTENTIAL
 1
  0.2000000000000000E+00 2 -0.4178900440000000E+01  0.7244633100000000E+00
 0
         # Potential name:  GTH-PBE-Q1  for symbol:  H
         # Potential read from the potential filename: ../POTENTIAL
       &END POTENTIAL
     &END KIND
     &KIND N
       BASIS_SET DZVP-GTH-PADE
       POTENTIAL GTH-PBE-q5
       &POTENTIAL
 2 3
  0.2837905100000000E+00 2 -0.1241522559000000E+02  0.1868095920000000E+01
 2
  0.2554050000000000E+00 1  0.1363026257000000E+02
  0.2454945300000000E+00 0
         # Potential name:  GTH-PBE-Q5  for symbol:  N
         # Potential read from the potential filename: ../POTENTIAL
       &END POTENTIAL
     &END KIND
     &KIND O
       BASIS_SET DZVP-GTH-PADE
       POTENTIAL GTH-PBE-q6
       &POTENTIAL
 2 4
  0.2445543000000000E+00 2 -0.1666721480000000E+02  0.2487311320000000E+01
 2
  0.2209559200000000E+00 1  0.1833745811000000E+02
  0.2113324700000000E+00 0
         # Potential name:  GTH-PBE-Q6  for symbol:  O
         # Potential read from the potential filename: ../POTENTIAL
       &END POTENTIAL
     &END KIND
     &KIND C
       BASIS_SET DZVP-GTH-PADE
       POTENTIAL GTH-PBE-q4
       &POTENTIAL
 2 2
  0.3384712400000000E+00 2 -0.8803673979999999E+01  0.1339210850000000E+01
 2
  0.3025757500000000E+00 1  0.9622486650000001E+01
  0.2915069400000000E+00 0
         # Potential name:  GTH-PBE-Q4  for symbol:  C
         # Potential read from the potential filename: ../POTENTIAL
       &END POTENTIAL
     &END KIND
     &TOPOLOGY
       COORD_FILE_NAME ../../Dy_L10_L19_L21.xyz
       COORD_FILE_FORMAT  XYZ
       NUMBER_OF_ATOMS  113
       MULTIPLE_UNIT_CELL  1 1 1
     &END TOPOLOGY
   &END SUBSYS
 &END FORCE_EVAL
