 # Version information for this restart file 
 # current date 2023-04-08 04:46:28.640
 # current working dir /mnt/scratch2/users/40265864/MSc_ML_MM/ln_replacements/xyz/Dy_L10_L19_L21/geometry_optimisation_2/run-6
 # Program compiled at                              Mon 24 Oct 18:14:20 BST 2022
 # Program compiled on                          login1.pri.kelvin2.alces.network
 # Program compiled for                                                    local
 # Source code revision number                                         svn:17462
 &GLOBAL
   PRINT_LEVEL  LOW
   PROJECT_NAME dy_complex
   RUN_TYPE  GEO_OPT
 &END GLOBAL
 &MOTION
   &GEO_OPT
     TYPE  MINIMIZATION
     OPTIMIZER  BFGS
     MAX_ITER  100
     MAX_DR     1.0000000000000001E-01
     MAX_FORCE     1.0000000000000001E-01
     RMS_DR     1.0000000000000000E-02
     RMS_FORCE     1.0000000000000000E-02
     STEP_START_VAL  41
     &BFGS
       TRUST_RADIUS     2.9999999999999999E-01
     &END BFGS
   &END GEO_OPT
 &END MOTION
 &FORCE_EVAL
   METHOD  QS
   &DFT
     BASIS_SET_FILE_NAME ../BASIS_MOLOPT_UCL
     BASIS_SET_FILE_NAME BASIS_SET
     POTENTIAL_FILE_NAME ../POTENTIAL
     UKS  T
     MULTIPLICITY  6
     CHARGE  3
     &SCF
       MAX_SCF  200
       EPS_SCF     5.0000000000000002E-05
       SCF_GUESS  RESTART
       &OT  T
         MINIMIZER  DIIS
         PRECONDITIONER  FULL_SINGLE_INVERSE
       &END OT
     &END SCF
     &MGRID
       NGRIDS  4
       CUTOFF     5.0000000000000000E+02
       REL_CUTOFF     3.0000000000000000E+01
     &END MGRID
     &XC
       DENSITY_CUTOFF     1.0000000000000000E-10
       GRADIENT_CUTOFF     1.0000000000000000E-10
       TAU_CUTOFF     1.0000000000000000E-10
       &XC_FUNCTIONAL  NO_SHORTCUT
         &PBE  T
         &END PBE
       &END XC_FUNCTIONAL
     &END XC
   &END DFT
   &SUBSYS
     &CELL
       A     2.5000000000000004E+01    0.0000000000000000E+00    0.0000000000000000E+00
       B     0.0000000000000000E+00    2.5000000000000004E+01    0.0000000000000000E+00
       C     0.0000000000000000E+00    0.0000000000000000E+00    2.5000000000000004E+01
       PERIODIC  XYZ
       MULTIPLE_UNIT_CELL  1 1 1
     &END CELL
     &COORD
Cl   -2.2747717970116512E+00    1.6957772790322909E+00   -1.3268569645237561E+01
C   -1.5837086907038431E+00    1.1953906802771606E+00   -1.1782741604510603E+01
C   -4.6695954590431366E-01    1.8985999763108123E+00   -1.1257023051203189E+01
C    9.2162588380849231E-02    1.4902392060044172E+00   -1.0044437092430121E+01
C   -4.2009567618264387E-01    3.4995603514509294E-01   -9.3448363693479379E+00
C   -1.5541752391375785E+00   -3.3266391675026180E-01   -9.8908514273308743E+00
C   -2.1386119436464579E+00    8.7722720425419259E-02   -1.1086729076545636E+01
C    2.3663211517554930E-01   -1.0773125766164045E-01   -8.1150858298404689E+00
C    5.6100451062938850E-01    9.0524280475310692E-01   -7.1264477207939469E+00
C    7.2807276725705347E-02    2.2844115388348487E+00   -7.1253167230185603E+00
C    6.1658848852994197E-01    2.8943041977529744E+00   -6.0159035021074443E+00
C    1.4208709260778112E+00    1.8836070324082519E+00   -5.3342370913180934E+00
N    1.3433118984276977E+00    6.8773748018898573E-01   -6.0236174913940923E+00
Dy    2.7977310353462737E+00   -1.0889371469559925E+00   -5.7134483388294361E+00
N    1.0583108007999940E+00   -2.1281003541019823E+00   -6.8514035630505443E+00
C    5.0649133898192500E-01   -1.5236220191479266E+00   -7.9732541026873660E+00
C    2.3702209792064044E-01   -2.5370402067589226E+00   -8.9843632323571629E+00
C    5.6244097950522531E-01   -3.7583174243331539E+00   -8.4310528265262636E+00
C    1.0667048442835423E+00   -3.4935472309683711E+00   -7.0920353401334904E+00
C    1.5186239876021443E+00   -4.5158683271652578E+00   -6.1787290249925029E+00
C    2.2409876233205850E+00   -4.2925298572689696E+00   -4.9442006399254375E+00
N    2.6300105121932038E+00   -3.0522280033970017E+00   -4.4849578279341413E+00
C    3.3527422889366050E+00   -3.2537824727312303E+00   -3.3312689641048854E+00
C    3.3616247595263697E+00   -4.6767082460325620E+00   -2.9991797572235912E+00
C    2.6488058820012381E+00   -5.3194460649217028E+00   -3.9912845424177021E+00
C    3.9969076968143900E+00   -2.2241715163951374E+00   -2.5436822818076057E+00
C    3.6854997371080884E+00   -8.0954982132892939E-01   -2.6056716373681996E+00
N    2.8608312240717155E+00   -2.4492645072414440E-01   -3.5602072288547193E+00
C    2.8237829818600848E+00    1.1160810836275155E+00   -3.3144097113916611E+00
C    2.1571038964598248E+00    2.1060024332437246E+00   -4.1240294765638108E+00
C    2.2998947548447988E+00    3.5177983712032415E+00   -3.6889967329232110E+00
C    1.7660126691245570E+00    3.9610499234757972E+00   -2.4474386620317561E+00
C    1.8694568107104659E+00    5.3067056788149207E+00   -2.0733725957861688E+00
C    2.5707031415857893E+00    6.2120335639950843E+00   -2.9162963069051075E+00
C    3.1485495282091551E+00    5.7770652805951066E+00   -4.1350870892535108E+00
C    2.9842187852420743E+00    4.4439287690177194E+00   -4.5301393709940534E+00
Cl    2.7211738421162637E+00    7.8570962463825822E+00   -2.4414551689754611E+00
C    3.6572228635756341E+00    1.4245535723618570E+00   -2.1573568777371221E+00
C    4.2122000628425935E+00    2.3931810097123132E-01   -1.7334370522846234E+00
C    5.0842979876687924E+00   -2.6986328947023313E+00   -1.6735892025596895E+00
C    5.2198961444563450E+00   -2.3436600194185342E+00   -2.9768136675441986E-01
C    6.2560047101757856E+00   -2.8707128791139644E+00    4.7766248396418343E-01
C    7.2101118547843965E+00   -3.7415869636653381E+00   -1.1951802017796372E-01
C    7.1226062549892148E+00   -4.0774820927708655E+00   -1.4943401278429111E+00
C    6.0599891883804116E+00   -3.5774067229665567E+00   -2.2505215051320246E+00
Cl    8.4735851761391814E+00   -4.3930311992305739E+00    8.3624584974371297E-01
C    1.2380740098426428E+00   -5.9130535428194930E+00   -6.5469329611295652E+00
C   -9.5246493701257151E-02   -6.3118857110794906E+00   -6.8734341411026296E+00
C   -3.8768766533500421E-01   -7.6447815514327653E+00   -7.1760456524206528E+00
C    6.6364321206451149E-01   -8.5981649951484744E+00   -7.2019417332371125E+00
C    2.0014586074540381E+00   -8.2173164332598603E+00   -6.9170843962642721E+00
C    2.2776720063940203E+00   -6.8920823903044193E+00   -6.5695707302437292E+00
Cl    3.1564121020822433E-01   -1.0234953038885148E+01   -7.5862933753730335E+00
O   -9.9355429555395974E-02   -5.2563031554470263E-01   -3.0464153330868151E+00
C   -6.5137122542959536E-01   -1.4097067508069860E+00   -2.3210611201001137E+00
C   -1.5632401197601684E+00   -2.3492779393412380E+00   -2.8828961685561083E+00
C   -1.8051554781335586E+00   -2.0902749872040456E+00   -4.2545379979104894E+00
O   -1.2263104636988547E+00   -1.1801369014858496E+00   -4.9205248977136495E+00
C   -2.9120553224241301E+00   -2.8882107332581257E+00   -5.0091368940472147E+00
F   -3.0239098419955655E+00   -4.1532267592441192E+00   -4.5153423055583843E+00
F   -4.0934497755938253E+00   -2.2374248387516560E+00   -4.8632643654850636E+00
F   -2.6196900028959416E+00   -2.9889036490768479E+00   -6.3350196828125442E+00
C   -4.0944337675560810E-01   -1.3535461356241467E+00   -8.0681864968632977E-01
C   -3.0175895856108953E-01   -2.6666685492578739E+00   -8.4453926439091252E-03
C    3.5092691681954596E-01   -2.1602114656655917E+00    1.3065634110883775E+00
C    1.0027829860236304E+00   -8.0600170546953265E-01    9.1300068449797767E-01
O    8.0815436895328052E-01   -6.4582622210763541E-01   -5.2775443795419907E-01
O    4.5555447175788863E+00   -2.2935007953229554E+00   -6.5234986170111400E+00
C    5.2990719947315439E+00   -2.1417948137832008E+00   -7.5590310659035174E+00
C    5.4117083863729860E+00   -9.6751474679132621E-01   -8.3324748457887292E+00
C    4.7700941373189067E+00    2.2461766359713420E-01   -7.9234011871588743E+00
O    4.0712880591140150E+00    4.0157824898084377E-01   -6.8607351626245157E+00
C    4.8726655490017725E+00    1.4949457228949821E+00   -8.7983062500398201E+00
F    5.2074081972946793E+00    1.1887922015068790E+00   -1.0072270615047527E+01
F    5.7726323810362361E+00    2.3597756853711878E+00   -8.2691199717770445E+00
F    3.6548318624423390E+00    2.1370046660317454E+00   -8.8280378589794708E+00
C    6.1346820656738217E+00   -3.3899439518953640E+00   -7.9500021653235633E+00
F    5.4851050489012261E+00   -4.5188146227858610E+00   -7.5587135260943246E+00
F    7.3418181242442824E+00   -3.3372103001829965E+00   -7.3134818031801032E+00
F    6.3364225426596121E+00   -3.4588512104568991E+00   -9.2925126478499802E+00
H   -4.4973339093830986E-02    2.7422049183355131E+00   -1.1808189099752248E+01
H    9.7940861603797258E-01    2.0050287319319287E+00   -9.6663043223325182E+00
H   -2.0167877184075822E+00   -1.1487924389668682E+00   -9.3303532339464983E+00
H   -3.0219671018462244E+00   -4.1649102744746974E-01   -1.1485491604069662E+01
H   -6.3199269129974112E-01    2.7213093019635757E+00   -7.8301777803379125E+00
H    4.3816193404997422E-01    3.9134129959709401E+00   -5.6753760972234382E+00
H   -1.0792172289884627E-01   -2.3643777289250232E+00   -1.0001161799463413E+01
H    5.1809495576527520E-01   -4.7273908380520231E+00   -8.9242587813210736E+00
H    3.7967002001334142E+00   -5.1299850877896374E+00   -2.1089360787639446E+00
H    2.4104143423708324E+00   -6.3820797387759249E+00   -4.0389518231865082E+00
H    1.2181577325610218E+00    3.2624563589363946E+00   -1.8088006200586393E+00
H    1.4145737679494903E+00    5.6679628270141640E+00   -1.1486163504006075E+00
H    3.7210596744202236E+00    6.4748965635893363E+00   -4.7497957911971520E+00
H    3.4347844313952658E+00    4.0962568246375701E+00   -5.4643884780590417E+00
H    3.8415227910540515E+00    2.4161234682512727E+00   -1.7500719486416509E+00
H    4.9314452681341523E+00    1.1970665406344336E-01   -9.2746384026159601E-01
H    4.4637485615101795E+00   -1.7187566356915178E+00    1.8309808266213057E-01
H    6.3326812462653725E+00   -2.6371111146086426E+00    1.5417855021080464E+00
H    7.8799697430870159E+00   -4.7184331386241851E+00   -1.9524957408897574E+00
H    6.0077766784602726E+00   -3.8109812908505609E+00   -3.3173031204514660E+00
H   -9.1015360541576407E-01   -5.5839525139432773E+00   -6.8201663362782758E+00
H   -1.4132335484774823E+00   -7.9604409375278964E+00   -7.3793161990084188E+00
H    2.8044184304970412E+00   -8.9546412879359529E+00   -6.9802028761993702E+00
H    3.3114734971576567E+00   -6.5865084429303753E+00   -6.3873683304665869E+00
H   -2.0603887571763586E+00   -3.1395645768904057E+00   -2.3269561135637677E+00
H   -1.2718785491307378E+00   -7.5606268200077476E-01   -4.3487108715885237E-01
H   -1.2757008506565799E+00   -3.1469272674273476E+00    1.5942250320400755E-01
H    3.5520542489179330E-01   -3.3771844270778311E+00   -5.3542026305509272E-01
H   -4.0651888725533425E-01   -2.0123724150264768E+00    2.0901617585636898E+00
H    1.0862605093495925E+00   -2.8796182533063295E+00    1.6942438006758302E+00
H    5.0908422529491881E-01    4.2749579933470748E-02    1.4192417969314011E+00
H    2.0859948222595683E+00   -7.4814223381446676E-01    1.0990896554229090E+00
H    6.0145562943054767E+00   -9.7881682885432575E-01   -9.2407950516163897E+00
     &END COORD
     &KIND Dy
       BASIS_SET DZVP-MOLOPT-SR-GTH
       POTENTIAL GTH-PBE-q20
       &POTENTIAL
 4 6 0 10
  0.5102968700000000E+00 2  0.1767093508000000E+02 -0.8678777000000000E+00
 4
  0.4421234800000000E+00 2 -0.2715733840000000E+01  0.4017884260000000E+01
 -0.5187066270000000E+01
  0.4501723000000000E+00 2 -0.2773475350000000E+01  0.2201152450000000E+01
 -0.2604438700000000E+01
  0.4711651400000000E+00 1 -0.7522756100000000E+00
  0.2618074100000000E+00 1 -0.2424856414000000E+02
         # Potential name:  GTH-PBE-Q20  for symbol:  DY
         # Potential read from the potential filename: ../POTENTIAL
       &END POTENTIAL
     &END KIND
     &KIND Tb
       BASIS_SET DZVP-MOLOPT-SR-GTH
       POTENTIAL GTH-PBE-q19
     &END KIND
     &KIND Ho
       BASIS_SET DZVP-MOLOPT-SR-GTH
       POTENTIAL GTH-PBE-q21
     &END KIND
     &KIND Gd
       BASIS_SET DZVP-MOLOPT-SR-GTH
       POTENTIAL GTH-PBE-q18
     &END KIND
     &KIND Lu
       BASIS_SET DZVP-MOLOPT-SR-GTH
       POTENTIAL GTH-PBE-q25
     &END KIND
     &KIND Pm
       BASIS_SET DZVP-MOLOPT-SR-GTH
       POTENTIAL GTH-PBE-q15
     &END KIND
     &KIND Tm
       BASIS_SET DZVP-MOLOPT-SR-GTH
       POTENTIAL GTH-PBE-q23
     &END KIND
     &KIND F
       BASIS_SET DZVP-GTH-PADE
       POTENTIAL GTH-PBE-q7
       &POTENTIAL
 2 5
  0.2149295900000000E+00 2 -0.2157302836000000E+02  0.3199776150000000E+01
 2
  0.1946840200000000E+00 1  0.2374354045000000E+02
  0.1861560800000000E+00 0
         # Potential name:  GTH-PBE-Q7  for symbol:  F
         # Potential read from the potential filename: ../POTENTIAL
       &END POTENTIAL
     &END KIND
     &KIND S
       BASIS_SET DZVP-GTH-PADE
       POTENTIAL GTH-PBE-q6
     &END KIND
     &KIND Na
       BASIS_SET DZVP-GTH-PADE
       POTENTIAL GTH-PBE-q9
     &END KIND
     &KIND B
       BASIS_SET DZVP-GTH-PADE
       POTENTIAL GTH-PBE-q3
     &END KIND
     &KIND Cl
       BASIS_SET DZVP-GTH-PADE
       POTENTIAL GTH-PBE-q7
       &POTENTIAL
 2 5
  0.4100000000000000E+00 1 -0.6392081810000000E+01
 2
  0.3395386400000000E+00 2  0.1521898983000000E+02 -0.4934523210000000E+01
  0.6370442080000000E+01
  0.3784741600000000E+00 1  0.4338775270000000E+01
         # Potential name:  GTH-PBE-Q7  for symbol:  CL
         # Potential read from the potential filename: ../POTENTIAL
       &END POTENTIAL
     &END KIND
     &KIND H
       BASIS_SET DZVP-GTH-PADE
       POTENTIAL GTH-PBE-q1
       &POTENTIAL
 1
  0.2000000000000000E+00 2 -0.4178900440000000E+01  0.7244633100000000E+00
 0
         # Potential name:  GTH-PBE-Q1  for symbol:  H
         # Potential read from the potential filename: ../POTENTIAL
       &END POTENTIAL
     &END KIND
     &KIND N
       BASIS_SET DZVP-GTH-PADE
       POTENTIAL GTH-PBE-q5
       &POTENTIAL
 2 3
  0.2837905100000000E+00 2 -0.1241522559000000E+02  0.1868095920000000E+01
 2
  0.2554050000000000E+00 1  0.1363026257000000E+02
  0.2454945300000000E+00 0
         # Potential name:  GTH-PBE-Q5  for symbol:  N
         # Potential read from the potential filename: ../POTENTIAL
       &END POTENTIAL
     &END KIND
     &KIND O
       BASIS_SET DZVP-GTH-PADE
       POTENTIAL GTH-PBE-q6
       &POTENTIAL
 2 4
  0.2445543000000000E+00 2 -0.1666721480000000E+02  0.2487311320000000E+01
 2
  0.2209559200000000E+00 1  0.1833745811000000E+02
  0.2113324700000000E+00 0
         # Potential name:  GTH-PBE-Q6  for symbol:  O
         # Potential read from the potential filename: ../POTENTIAL
       &END POTENTIAL
     &END KIND
     &KIND C
       BASIS_SET DZVP-GTH-PADE
       POTENTIAL GTH-PBE-q4
       &POTENTIAL
 2 2
  0.3384712400000000E+00 2 -0.8803673979999999E+01  0.1339210850000000E+01
 2
  0.3025757500000000E+00 1  0.9622486650000001E+01
  0.2915069400000000E+00 0
         # Potential name:  GTH-PBE-Q4  for symbol:  C
         # Potential read from the potential filename: ../POTENTIAL
       &END POTENTIAL
     &END KIND
     &TOPOLOGY
       COORD_FILE_NAME ../../Dy_L10_L19_L21.xyz
       COORD_FILE_FORMAT  XYZ
       NUMBER_OF_ATOMS  113
       MULTIPLE_UNIT_CELL  1 1 1
     &END TOPOLOGY
   &END SUBSYS
 &END FORCE_EVAL
