 # Version information for this restart file 
 # current date 2023-03-26 17:22:01.878
 # current working dir /mnt/scratch2/users/40265864/MSc_ML_MM/ln_replacements/xyz/Gd_L6_O_O_O_O/geometry_optimisation/run-0
 # Program compiled at                              Mon 24 Oct 18:14:20 BST 2022
 # Program compiled on                          login1.pri.kelvin2.alces.network
 # Program compiled for                                                    local
 # Source code revision number                                         svn:17462
 &GLOBAL
   PRINT_LEVEL  LOW
   PROJECT_NAME molecule_name
   RUN_TYPE  GEO_OPT
 &END GLOBAL
 &MOTION
   &GEO_OPT
     OPTIMIZER  BFGS
     MAX_DR     5.0000000000000000E-01
     MAX_FORCE     5.0000000000000000E-01
     RMS_DR     5.0000000000000003E-02
     RMS_FORCE     5.0000000000000003E-02
     STEP_START_VAL  2
   &END GEO_OPT
 &END MOTION
 &FORCE_EVAL
   METHOD  QS
   &DFT
     BASIS_SET_FILE_NAME ../BASIS_MOLOPT_UCL
     BASIS_SET_FILE_NAME BASIS_SET
     POTENTIAL_FILE_NAME ../POTENTIAL
     UKS  T
     MULTIPLICITY  0
     CHARGE  3
     &SCF
       MAX_SCF  50
       EPS_SCF     5.0000000000000002E-05
       SCF_GUESS  RESTART
       &OT  T
         MINIMIZER  DIIS
         PRECONDITIONER  FULL_KINETIC
       &END OT
       &OUTER_SCF  T
         EPS_SCF     5.0000000000000002E-05
         MAX_SCF  20
       &END OUTER_SCF
     &END SCF
     &MGRID
       NGRIDS  2
       CUTOFF     4.0000000000000000E+02
       REL_CUTOFF     5.0000000000000000E+01
     &END MGRID
     &XC
       DENSITY_CUTOFF     1.0000000000000000E-10
       GRADIENT_CUTOFF     1.0000000000000000E-10
       TAU_CUTOFF     1.0000000000000000E-10
       &XC_FUNCTIONAL  NO_SHORTCUT
         &PBE  T
         &END PBE
       &END XC_FUNCTIONAL
     &END XC
   &END DFT
   &SUBSYS
     &CELL
       A     3.6000000000000000E+01    0.0000000000000000E+00    0.0000000000000000E+00
       B     0.0000000000000000E+00    3.4000000000000000E+01    0.0000000000000000E+00
       C     0.0000000000000000E+00    0.0000000000000000E+00    3.8000000000000007E+01
       PERIODIC  NONE
       MULTIPLE_UNIT_CELL  1 1 1
     &END CELL
     &COORD
C    7.5071482484571750E-01    1.6912311797609774E+00    2.3403216119570018E+00
C   -8.6048751055048944E-03    7.2380115788716637E-01    1.3402901583848403E+00
C    7.8525483724658396E-01    5.5494199324659577E-01   -3.9686165096619449E-03
C    7.4001401661460645E-02   -4.3400191045521425E-01   -9.9602642492241744E-01
C    9.6573556321592424E-01   -6.5680831791304928E-01   -2.2708073519077967E+00
C    3.1345299128350729E-01   -1.6435071164439670E+00   -3.3050563348253488E+00
C    1.2687997358409098E+00   -1.8518159258066709E+00   -4.5392538655666108E+00
C    6.4449627991731184E-01   -2.8667711664033719E+00   -5.5653949699943546E+00
C    1.6058361840508992E+00   -3.1334411612715929E+00   -6.7855951135745052E+00
C    1.0254565637496558E+00   -4.3313089087931020E+00   -7.6347173116347440E+00
C    1.7965947709987244E+00   -4.3248416910903780E+00   -9.0077894749186580E+00
C    1.1939444959501309E+00   -5.4770492621300679E+00   -9.8952850042419627E+00
O    1.6429064348091014E+00   -5.2748863478391499E+00   -1.1344348987000791E+01
C    1.0379248948700055E+00   -6.2680495577364006E+00   -1.2325610276858738E+01
C    1.9283844116971525E+00   -6.1955642216638678E+00   -1.3609289165907734E+01
O    3.3403661390809547E+00   -6.6194962220326090E+00   -1.3114428278364814E+01
C    4.0411318465124628E+00   -6.5774680410954467E+00   -1.4393448087901410E+01
C    3.8205213622331162E+00   -7.7021554375248025E+00   -1.5339554405979706E+01
C    4.4599472145239165E+00   -7.4759044180013889E+00   -1.6631432857550980E+01
C    5.2997329283664820E+00   -6.3020616723942711E+00   -1.6872643493366844E+01
C    5.5131348040517576E+00   -5.1471985755014638E+00   -1.6028419527370186E+01
C    4.7283237866381933E+00   -5.2719562684313459E+00   -1.4795250175408290E+01
O    4.8934168775118358E+00   -4.2159854159557923E+00   -1.3817042773857459E+01
C    5.9928216798196932E+00   -4.7282787487768276E+00   -1.2877732828105122E+01
C    6.5581238647555873E+00   -3.5326549950582700E+00   -1.2006307765609257E+01
O    5.3292086786901107E+00   -2.9379662826899517E+00   -1.1335216987661381E+01
C    4.6543662389106855E+00   -1.8446330574187046E+00   -1.2173993760867795E+01
C    3.2005288149462490E+00   -1.6613954504683064E+00   -1.1597477768646764E+01
C    2.2881668764346417E+00   -1.1527133789444852E+00   -1.2766365261638857E+01
C    8.2799980639214033E-01   -1.0580138123792657E+00   -1.2199553084742730E+01
C   -1.8380976780389546E-01   -8.1408005189075539E-01   -1.3372489867862985E+01
C   -1.6379705308164894E+00   -6.3519934191561156E-01   -1.2818661787166853E+01
C   -2.6673198404918268E+00   -4.1114525495034387E-01   -1.3980235075774109E+01
C   -4.1051919278072475E+00   -2.1013401130041467E-01   -1.3385725711891689E+01
C   -5.1597434699609446E+00    1.1936320390790311E-01   -1.4500356416712487E+01
C   -6.5792689198578378E+00    3.8974932916163235E-01   -1.3882653678093394E+01
C   -7.6279100531793169E+00    8.1727081809997837E-01   -1.4980646490917486E+01
C   -9.0747827781839998E+00    1.1458019253270386E+00   -1.4358251125522068E+01
C    7.5801424348288329E+00   -4.0335822826091556E+00   -1.0917849430050214E+01
C    6.0344270780580747E+00   -6.5415469833334914E+00   -1.8134026534947946E+01
N    6.7414547138982410E+00   -5.4346854571928001E+00   -1.8679969905361659E+01
C    7.4634004602883142E+00   -5.9102541844794763E+00   -1.9813284826829420E+01
N    7.6803720181041513E+00   -7.2361772096020864E+00   -2.0347643624304673E+01
Gd    6.5040429076563564E+00   -9.1803561347797888E+00   -2.0313473178756745E+01
N    5.7944466778307593E+00   -7.8853381500929487E+00   -1.8608732787942646E+01
C    4.8233463838036936E+00   -8.4543977093881040E+00   -1.7709673356420851E+01
N    4.4971508523172972E+00   -9.8141494638464852E+00   -1.7372636875715767E+01
C    5.7074963713622520E+00   -1.0570198236718017E+01   -1.7563996738462542E+01
C    6.1048081632853837E+00   -1.1327658556864067E+01   -1.6338984958242264E+01
C    5.3700330794103301E+00   -1.1477887617435107E+01   -1.5096110502161023E+01
C    6.2142519040978579E+00   -1.2152773571883278E+01   -1.4107099128884609E+01
O    5.5070341865525663E+00   -1.2730834397766253E+01   -1.2981096824433628E+01
C    5.5755808812342158E+00   -1.1659704585498863E+01   -1.1896833036781047E+01
C    4.7853397956980999E+00   -1.2218953041751808E+01   -1.0640072268387195E+01
O    5.7001691327290249E+00   -1.3204417339413219E+01   -9.9442236920498779E+00
C    5.9532977564105307E+00   -1.4518387253220519E+01   -1.0681291468194889E+01
C    6.9003592579513437E+00   -1.5428237116481407E+01   -9.8145727082313794E+00
C    7.3072624582167576E+00   -1.6643232389684595E+01   -1.0725997130816040E+01
C    8.5036043817234415E+00   -1.7388219681759907E+01   -1.0026117754686638E+01
C    9.0730679419567224E+00   -1.8449158698400165E+01   -1.1034417446288897E+01
C    1.0327450119291738E+01   -1.9193507629259496E+01   -1.0455411549643070E+01
C    1.0906791853354592E+01   -2.0169330325675780E+01   -1.1540149863863014E+01
C    1.2138171759624512E+01   -2.0973053905149339E+01   -1.0996497937193931E+01
C    1.2683898783697904E+01   -2.1965526726311747E+01   -1.2081950073967370E+01
C    1.3857418896743555E+01   -2.2840406666645659E+01   -1.1523934539242452E+01
C    1.4352681592630290E+01   -2.3875885357070903E+01   -1.2594630340887266E+01
C    1.5485799593305693E+01   -2.4807795192667829E+01   -1.1992386826680386E+01
C    4.3715693664861401E+00   -1.1086942726414104E+01   -9.6324608099504676E+00
C    7.7287266589411638E+00   -1.2229361039337642E+01   -1.4140251382941839E+01
C    8.4581487099680697E+00   -1.2100109379399932E+01   -1.5427360539150852E+01
C    7.5343882908536921E+00   -1.1614202345784035E+01   -1.6447858233926407E+01
C    7.9314446203272571E+00   -1.1078502998952112E+01   -1.7781598802276299E+01
N    9.2967339112302305E+00   -1.1259515658285128E+01   -1.8136401416403704E+01
C    9.5157919511166753E+00   -1.0545296486316055E+01   -1.9351348239376847E+01
N    8.7462949571741060E+00   -9.5951797057817689E+00   -2.0112824140575583E+01
C    9.6106203606649654E+00   -9.2029177431456812E+00   -2.1218210734624673E+01
N    9.5653525236586336E+00   -8.0174785490195379E+00   -2.2019381251949643E+01
C    8.6910462604018672E+00   -7.0601577245219902E+00   -2.1388012412854092E+01
C    9.0781192049255690E+00   -5.6227696168136356E+00   -2.1519830974010912E+01
C    8.3469529821990527E+00   -4.9168535985253747E+00   -2.0478441901313474E+01
C    8.6514200293137726E+00   -3.6250137060460572E+00   -1.9898235900258189E+01
C    9.8142393811302959E+00   -3.0308180012033712E+00   -2.0561136331393406E+01
O    1.0277413040310408E+01   -1.7785878594516611E+00   -1.9993037869438226E+01
C    1.1539362690982500E+01   -2.1576436679089634E+00   -1.9203581657342255E+01
C    1.2110710080495179E+01   -8.7628241174546073E-01   -1.8452586107246891E+01
O    1.2688358037534028E+01    5.9978558211515584E-02   -1.9506060348921068E+01
C    1.1634706423573340E+01    5.9485157679785727E-01   -2.0475825019493506E+01
C    1.2197776511992949E+01    1.8041864033992634E+00   -2.1303714452589457E+01
C    1.0967641076742130E+01    2.2735039252123261E+00   -2.2173216823153300E+01
C    1.1492847765333455E+01    2.9004863552095332E+00   -2.3515977090278376E+01
C    1.0235068994569684E+01    3.1398720382547407E+00   -2.4422763255178911E+01
C    1.0589044785008323E+01    3.7583497487873307E+00   -2.5819432373768372E+01
C    9.2728062766132773E+00    3.8328722377816558E+00   -2.6669457302349873E+01
C    9.4770830645907864E+00    4.5423525597038594E+00   -2.8050765745495763E+01
C    8.1070765185688476E+00    4.6128061272643794E+00   -2.8809400286424015E+01
C    8.2142987612946854E+00    5.3973143902287708E+00   -3.0159885024262078E+01
C    6.8031492028388856E+00    5.5127818422067847E+00   -3.0836003918115662E+01
C    6.8756565225957456E+00    6.3642091427052438E+00   -3.2170471372186888E+01
C    1.3232348499608708E+01   -1.2676542346708990E+00   -1.7416281667190461E+01
C    1.0661576969129651E+01   -3.8095832742918749E+00   -2.1567026961847787E+01
C    1.0266431428173153E+01   -5.1044608631530064E+00   -2.2169071115837202E+01
O    1.1843228650133812E+01   -3.1866204247126015E+00   -2.2126572613802765E+01
C    1.1326969335554965E+01   -2.4459531330546267E+00   -2.3364354604177851E+01
C    1.2570827259787221E+01   -2.0319023633224615E+00   -2.4257197405572139E+01
O    1.3444855228423275E+01   -1.1520011685219820E+00   -2.3375819949277428E+01
C    1.4456856091759541E+01   -1.9344078933445641E+00   -2.2534894580132576E+01
C    1.5330650815199871E+01   -8.9321521813781113E-01   -2.1750680665731135E+01
C    1.6152987064590427E+01   -1.6790198308793356E+00   -2.0665026260409899E+01
C    1.6453983170630355E+01   -6.6241765349854131E-01   -1.9505081208426695E+01
C    1.7066321970753474E+01   -1.4453488888120105E+00   -1.8294590159889989E+01
C    1.7275007508957092E+01   -4.9781272103679020E-01   -1.7061774008143217E+01
C    1.7544972140238748E+01   -1.3684154214816506E+00   -1.5785105517181321E+01
C    1.8069621260322538E+01   -5.0589842365447524E-01   -1.4586544702762760E+01
C    1.8411225152227292E+01   -1.4329061228476334E+00   -1.3368624966564605E+01
C    1.9332797759204560E+01   -7.2338120267651274E-01   -1.2319675097448146E+01
C    1.9674393984028235E+01   -1.7149446245472300E+00   -1.1151177682107424E+01
C    2.0718413635676733E+01   -1.0761955783777282E+00   -1.0143025560258792E+01
C    1.2183885535727528E+01   -1.2143888463415988E+00   -2.5540556163041202E+01
C    1.0924360366125544E+01   -9.9114165768431590E+00   -2.1129400121542634E+01
C    1.0899062369769199E+01   -1.0645449892769200E+01   -1.9875937698196715E+01
C    1.2012097837521656E+01   -1.1106479796397007E+01   -1.9070698426178790E+01
C    1.3273171913627708E+01   -1.0840867858242678E+01   -1.9767711930482854E+01
C    1.3341461347768799E+01   -1.0037514862067701E+01   -2.1070221459655308E+01
C    1.2150537619080659E+01   -9.6269335397685492E+00   -2.1845529296976551E+01
O    1.4634510891562353E+01   -9.7731886643949029E+00   -2.1674701008104400E+01
C    1.5036932123741080E+01   -1.1127816756837191E+01   -2.2280671980170002E+01
C    1.6423958360690836E+01   -1.0887768915818738E+01   -2.2998657990558637E+01
O    1.7398278192335891E+01   -1.0564705150997000E+01   -2.1871821909414795E+01
C    1.7579134138637993E+01   -9.0637741125507851E+00   -2.1647881333912633E+01
C    1.8767174614322148E+01   -8.8415606594611855E+00   -2.0642968003586702E+01
C    1.8727135153980289E+01   -7.3286733569470321E+00   -2.0228969409527636E+01
C    1.9959931731714601E+01   -7.0491613795978019E+00   -1.9294522670163801E+01
C    1.9791179454253612E+01   -5.6072097090222268E+00   -1.8699562891357669E+01
C    2.1013121659247073E+01   -5.1743919071290616E+00   -1.7814216629693743E+01
C    2.0777288408387218E+01   -3.6962619515308868E+00   -1.7336442892209540E+01
C    2.1904644501959268E+01   -3.1700862049738672E+00   -1.6379349847588244E+01
C    2.1691199662221727E+01   -1.6385054574045657E+00   -1.6096331489105445E+01
C    2.2735184044203411E+01   -1.0682113761211207E+00   -1.5072585503415795E+01
C    2.2607462686760410E+01    4.9124088430402330E-01   -1.4945580776396094E+01
C    2.3666636635482458E+01    1.0695963428599320E+00   -1.3905111013899466E+01
C    1.6969563282214537E+01   -1.2136005949111142E+01   -2.3774640794149743E+01
O    1.4477101186858034E+01   -1.1081034452157473E+01   -1.8998115108694904E+01
C    1.4918334200431907E+01   -9.7131255442676387E+00   -1.8459718693905035E+01
C    1.5961885199529828E+01   -9.8519007557472165E+00   -1.7257830393563918E+01
O    1.7214367188815821E+01   -1.0475347070473383E+01   -1.7839416590198933E+01
C    1.7042224587886537E+01   -1.1875062250535610E+01   -1.8420926050204347E+01
C    1.8427914192050821E+01   -1.2607602702209569E+01   -1.8511284881830825E+01
C    1.8071545832204908E+01   -1.4060506582550715E+01   -1.9028237887813471E+01
C    1.8977377157729681E+01   -1.4399581473193466E+01   -2.0268489665489895E+01
C    1.8441438928343231E+01   -1.5724458573353957E+01   -2.0913554141235952E+01
C    1.9352644967938758E+01   -1.6215980974391879E+01   -2.2090304930665464E+01
C    1.8674916371662079E+01   -1.7439811429330785E+01   -2.2798648484277749E+01
C    1.9609214325957222E+01   -1.8068426451767202E+01   -2.3887576139334399E+01
C    1.8896371536577778E+01   -1.9280779265016434E+01   -2.4580171902188749E+01
C    1.9833876701138099E+01   -1.9990653289954988E+01   -2.5615006231126060E+01
C    1.9104694249508288E+01   -2.1205965482080273E+01   -2.6287348119708000E+01
C    2.0075095921402291E+01   -2.1978719136874119E+01   -2.7263340154913312E+01
C    1.6304532755604768E+01   -8.4628717662618751E+00   -1.6597692778760663E+01
N    6.8183402140588525E+00   -1.0451745644244824E+01   -1.8471841019130533E+01
O    8.3423426620830963E+00   -1.2487833485108148E+01   -1.2851949662427456E+01
C    9.3561392183343894E+00   -1.3622366068424244E+01   -1.3055432495699671E+01
C    1.0472318863865146E+01   -1.3431113182646992E+01   -1.1945260093337286E+01
O    9.6824416826208051E+00   -1.3248513248180499E+01   -1.0658675615644729E+01
C    9.5431598813289931E+00   -1.1792271308716572E+01   -1.0208224565095909E+01
C    8.6470858396798622E+00   -1.1792949932029167E+01   -8.9192361591275997E+00
C    8.2724533548865313E+00   -1.0309728211494841E+01   -8.5672354096189220E+00
C    7.3997554558075214E+00   -1.0399827234183501E+01   -7.2614355386084792E+00
C    6.7086283471492214E+00   -9.0257901004053203E+00   -6.9487907380215193E+00
C    5.7887227866998474E+00   -9.1521315923519779E+00   -5.6813690747636771E+00
C    4.9745040639208034E+00   -7.8350327132382809E+00   -5.4282748454184846E+00
C    4.0673675635255204E+00   -7.9769051712527110E+00   -4.1547649574085312E+00
C    3.2139055270613217E+00   -6.6762597214642110E+00   -3.9500384291229493E+00
C    2.3849121737405539E+00   -6.7246548638045782E+00   -2.6206038745112954E+00
C    1.4773681265889269E+00   -5.4498974659996104E+00   -2.4695454284516116E+00
C    8.1507713341815535E-01   -5.4034491087039411E+00   -1.0325926219176518E+00
C    1.1421308808703952E+01   -1.4677896635898371E+01   -1.1810698373090306E+01
O    4.3663939019743054E+00   -8.4552120119926784E+00   -2.0795444989535280E+01
O    5.0500464277030312E+00   -1.0950721091293039E+01   -2.0557590070492250E+01
O    6.2662118438331804E+00   -8.3368195761699173E+00   -2.2429908368768917E+01
O    7.2177465418176148E+00   -1.0825813149914387E+01   -2.1766945396380223E+01
C   -4.7348502089869188E-01   -5.8771207232712417E+00   -1.2600781098176117E+01
H    4.7130756735692719E-01    1.3584153200711346E+00    3.4800494759474083E+00
H    1.9541739829970384E+00    1.6066566096135324E+00    2.1629737559233719E+00
H    3.8585156731822112E-01    2.8406054281671675E+00    2.1644086346656364E+00
H   -1.4851598479211980E-01   -3.7713015762031554E-01    1.8412597096104348E+00
H   -1.1157614167237417E+00    1.1694235104034252E+00    1.0884869369857340E+00
H    9.0904137922376971E-01    1.6430305832358314E+00   -5.4090561009658333E-01
H    1.8993012885195464E+00    1.3100872697232369E-01    2.4883446206530563E-01
H   -1.1827410552375178E-01   -1.4995656428532047E+00   -4.3396379993763340E-01
H   -1.0096176744487684E+00    2.5517547745015915E-02   -1.3172077171654133E+00
H    1.1591113106368520E+00    4.2754705823666811E-01   -2.7943350139371259E+00
H    2.0457409533621034E+00   -1.0931312938678626E+00   -1.9121764402942509E+00
H    1.0716257536834374E-01   -2.7151682286443379E+00   -2.7620501704363001E+00
H   -7.4930649242331471E-01   -1.1744992845031130E+00   -3.6771128528152617E+00
H    1.4580784422962390E+00   -7.7239799968234157E-01   -5.0752707041316540E+00
H    2.3388315509087039E+00   -2.2726384613220079E+00   -4.1374788234763651E+00
H    4.1687892400117033E-01   -3.9104259451546866E+00   -4.9804815075599933E+00
H   -4.0754987321273267E-01   -2.4075288093876948E+00   -5.9765784392658183E+00
H    1.6919841963245255E+00   -2.1245329609277896E+00   -7.4652137117528214E+00
H    2.7146762146995949E+00   -3.4102146149059904E+00   -6.3606066085101629E+00
H    1.2209157013963938E+00   -5.3728959690169091E+00   -7.0347929902800832E+00
H   -1.6422552534485690E-01   -4.1537830727723026E+00   -7.8169089787903250E+00
H    1.6149294602367763E+00   -3.3155373913277968E+00   -9.6605258129786105E+00
H    2.9748097614189968E+00   -4.6029901175551453E+00   -8.8942405320637050E+00
H    1.5618023425705072E+00   -6.6297888127665567E+00   -9.6031872909359794E+00
H   -4.1030470440475961E-02   -5.5230265168814050E+00   -9.9329801144512668E+00
H    1.0977209147684659E+00   -7.3599002558921889E+00   -1.1771772990856867E+01
H    1.3945616992119865E+00   -6.9283169713131834E+00   -1.4440736366473912E+01
H    1.8861614668221804E+00   -5.0112519477245572E+00   -1.3960512714824048E+01
H    3.2358809344850257E+00   -8.7477469618755475E+00   -1.5146322859366753E+01
H    6.1795057281045285E+00   -4.1910515852262327E+00   -1.6386356808940551E+01
H    5.5333465154133306E+00   -5.6066431802908649E+00   -1.2138881020089030E+01
H    6.9576439871443130E+00   -5.2076788145951705E+00   -1.3488116979395400E+01
H    6.9679997184124982E+00   -2.6974891466711939E+00   -1.2810666196481710E+01
H    5.3838483850404817E+00   -8.4169010407826239E-01   -1.2079442305083061E+01
H    4.6887360149733963E+00   -2.2241983119475974E+00   -1.3345112004018990E+01
H    2.8657213285768366E+00   -2.7579450760296877E+00   -1.1190698584916767E+01
H    3.3071250763835449E+00   -8.4857794870220227E-01   -1.0701153801998485E+01
H    2.6489010977827294E+00   -5.3205972275125718E-02   -1.3148291159799330E+01
H    2.3147345175838021E+00   -1.9449848897091526E+00   -1.3689337024230328E+01
H    5.3757974609029213E-01   -2.0879221272736812E+00   -1.1614739495855458E+01
H    7.4850790987118754E-01   -1.3743249160500112E-01   -1.1403078829799474E+01
H    1.4236915369270522E-01    1.8516633226659812E-01   -1.3989369439629545E+01
H   -1.5216644833349846E-01   -1.7600292333024232E+00   -1.4139768851744796E+01
H   -1.9599699528346697E+00   -1.6244402440272825E+00   -1.2184951378069783E+01
H   -1.6730422621849301E+00    3.2315274147070744E-01   -1.2067901304363685E+01
H   -2.3616914924745984E+00    5.7640665340278430E-01   -1.4624930413730503E+01
H   -2.6726039373620472E+00   -1.3726482508893518E+00   -1.4729171691359349E+01
H   -4.4471331700573877E+00   -1.2206549554047212E+00   -1.2794618197254024E+01
H   -4.0836511974326752E+00    7.0110112855701578E-01   -1.2576617290300545E+01
H   -4.7846157719437921E+00    1.0996829058955198E+00   -1.5121405672940789E+01
H   -5.2175584160867432E+00   -8.1524631955689719E-01   -1.5282997682348277E+01
H   -6.9639386040746674E+00   -6.2429568112487588E-01   -1.3326796176586116E+01
H   -6.4710323721225125E+00    1.2677193153156943E+00   -1.3044903998156142E+01
H   -7.1342220308459492E+00    1.7789745382902351E+00   -1.5553067369080253E+01
H   -7.6721891941948321E+00   -8.3511324075042317E-02   -1.5805173383021160E+01
H   -8.9428921664940724E+00    1.1518491685871866E+00   -1.3144085278393490E+01
H   -9.3671925323503373E+00    2.2658044363466789E+00   -1.4743722955856919E+01
H   -9.9620839959882446E+00    3.6323558160108893E-01   -1.4691975986934597E+01
H    7.5224038593255864E+00   -5.2563066074685958E+00   -1.0929179208142743E+01
H    8.6575522017119244E+00   -3.5530791819441849E+00   -1.1218132446615982E+01
H    7.1112665909921393E+00   -3.5610935801063857E+00   -9.8859704182093324E+00
H    4.1804312814838633E+00   -1.1281767999108979E+01   -1.5029372551880833E+01
H    6.7199770919874533E+00   -1.1292136614475007E+01   -1.1606260364754348E+01
H    4.9406117590235628E+00   -1.0659667008332155E+01   -1.2264772189865234E+01
H    3.8955932620286378E+00   -1.2899957914654035E+01   -1.1152310533285473E+01
H    4.8192448431327595E+00   -1.4993590796060781E+01   -1.0872206993546889E+01
H    6.3825961167253924E+00   -1.4225947558011681E+01   -1.1804941618912029E+01
H    7.8393944644240374E+00   -1.4707895153627589E+01   -9.5320612575167001E+00
H    6.2435032047854255E+00   -1.5762399133878581E+01   -8.8447758624751600E+00
H    6.3646112073354715E+00   -1.7407934861306156E+01   -1.0839304074260866E+01
H    7.6591200104945694E+00   -1.6255334641283035E+01   -1.1823810637507357E+01
H    9.3789615998876599E+00   -1.6598460688333915E+01   -9.7207316998777262E+00
H    8.1203565108327833E+00   -1.7956629729188602E+01   -9.0169811092664478E+00
H    8.2146352952798178E+00   -1.9274010819064198E+01   -1.1297765423699913E+01
H    9.3898118522792124E+00   -1.7895087328883431E+01   -1.2071394468885442E+01
H    1.1186356532326815E+01   -1.8389168928808200E+01   -1.0139883343844629E+01
H    1.0020301053804710E+01   -1.9835964866956520E+01   -9.4665732346643754E+00
H    1.0048501035253485E+01   -2.0961454043887986E+01   -1.1887651019319215E+01
H    1.1256451922576886E+01   -1.9539103195386041E+01   -1.2522996437801964E+01
H    1.3032246129171240E+01   -2.0208115720594801E+01   -1.0676223128365677E+01
H    1.1817701682187923E+01   -2.1610339704851675E+01   -1.0008121444546436E+01
H    1.1781636753372922E+01   -2.2696622492398305E+01   -1.2454000211268088E+01
H    1.3076364896985586E+01   -2.1338337706213458E+01   -1.3052023044144542E+01
H    1.4781830922643522E+01   -2.2118320045109343E+01   -1.1192280612943172E+01
H    1.3473153259541832E+01   -2.3442452046778389E+01   -1.0537438892131158E+01
H    1.3395181231627229E+01   -2.4536146363107868E+01   -1.2952454765305591E+01
H    1.4772562116336260E+01   -2.3263230863635343E+01   -1.3561009537082558E+01
H    1.5436302555849736E+01   -2.4777810196472803E+01   -1.0774780139110639E+01
H    1.5307162825809590E+01   -2.5946302306181611E+01   -1.2388528635489315E+01
H    1.6578959049920730E+01   -2.4425550023800010E+01   -1.2369599190644125E+01
H    4.5848434811395578E+00   -1.1607057824037680E+01   -8.5464535229555665E+00
H    5.1355319619914939E+00   -1.0157025279571412E+01   -9.8685522885938628E+00
H    3.1924408686572674E+00   -1.0876222413308900E+01   -9.8705768847289175E+00
H    9.6438076027828696E+00   -1.2217581236888952E+01   -1.5702309718272584E+01
H    7.9908589276185644E+00   -3.1229831027638162E+00   -1.9002594036633994E+01
H    1.1230064176171041E+01   -2.9555130746782190E+00   -1.8303281088972440E+01
H    1.2392387768499104E+01   -2.7297599185981269E+00   -1.9893447705164654E+01
H    1.1086481620510209E+01   -3.3851796775163373E-01   -1.8028028621437887E+01
H    1.1243934700476551E+01   -3.5694641704145508E-01   -2.1157286126888337E+01
H    1.0673080383697227E+01    8.9745803345184694E-01   -1.9753518955693920E+01
H    1.2552875992039825E+01    2.6419592741214744E+00   -2.0494488616262220E+01
H    1.3106727867256067E+01    1.3383595810780811E+00   -2.1961199057469841E+01
H    1.0222730762692731E+01    1.3487149653941417E+00   -2.2434629142120844E+01
H    1.0348152576395680E+01    3.1198978173507323E+00   -2.1555236804176999E+01
H    1.2050688612346759E+01    3.9642083701436386E+00   -2.3306816788995153E+01
H    1.2268087249666493E+01    2.1436508488917156E+00   -2.4071317884814345E+01
H    9.6602800693667596E+00    2.0816614083129110E+00   -2.4605178248861776E+01
H    9.4525987343111897E+00    3.8846786635014983E+00   -2.3858093861679805E+01
H    1.1047700668842756E+01    4.8794309935928277E+00   -2.5687910703474451E+01
H    1.1407791210310444E+01    3.0663766450448993E+00   -2.6398745629047337E+01
H    8.8493554147189251E+00    2.7079157886392480E+00   -2.6871340198914112E+01
H    8.4190272961454422E+00    4.4397980746041563E+00   -2.6047475707080476E+01
H    9.8995785716524889E+00    5.6732322848495595E+00   -2.7884813703745841E+01
H    1.0280715198595534E+01    3.9269275288635996E+00   -2.8730271035816024E+01
H    7.7063648062104813E+00    3.4829833256759235E+00   -2.9035002231981412E+01
H    7.2803475398991573E+00    5.1583039927175891E+00   -2.8098735269252774E+01
H    8.6472049420796608E+00    6.5149164967032043E+00   -2.9943680999029336E+01
H    8.9862071828210635E+00    4.8224819628951767E+00   -3.0907882325974050E+01
H    6.3927512535770603E+00    4.3883557298258271E+00   -3.1067095247044868E+01
H    6.0447612517200495E+00    6.0280640641131171E+00   -3.0035390194446038E+01
H    6.9144552907619738E+00    5.6179519011436607E+00   -3.3132170764074388E+01
H    5.8734589746302701E+00    7.0537543307097241E+00   -3.2244737795950435E+01
H    7.8696725467325566E+00    7.0692446188953832E+00   -3.2150471387122124E+01
H    1.2716954185527840E+01   -1.1209676630524625E+00   -1.6320224513796642E+01
H    1.3577707905602193E+01   -2.4112214615191920E+00   -1.7684873603586279E+01
H    1.4105314838086496E+01   -4.4771511211530618E-01   -1.7666077951509894E+01
H    1.0841483650153672E+01   -5.7827435772917202E+00   -2.2999952849392997E+01
H    1.0605235424673108E+01   -3.1241719151010345E+00   -2.4111485620202835E+01
H    1.0688294299229918E+01   -1.4254507684660436E+00   -2.3069953801045028E+01
H    1.3207065595756195E+01   -3.0665288185130186E+00   -2.4442558782252490E+01
H    1.3809849435940571E+01   -2.7233939437796320E+00   -2.1833467265752475E+01
H    1.5080905318193865E+01   -2.6338889203830997E+00   -2.3352342532654387E+01
H    1.6036323099674366E+01   -3.6740785656419667E-01   -2.2591921271145569E+01
H    1.4522922179200638E+01   -1.2810425385674495E-01   -2.1259318120421941E+01
H    1.5529769445115537E+01   -2.6238548964964399E+00   -2.0221246981453771E+01
H    1.7199806542967160E+01   -2.0650595039459851E+00   -2.1153485751049871E+01
H    1.7245718362170738E+01    1.8428493000138799E-01   -1.9886564153667287E+01
H    1.5424922081868102E+01   -1.1026053384044923E-01   -1.9168066538686464E+01
H    1.6316267752817069E+01   -2.3493250504387362E+00   -1.7979568050226998E+01
H    1.8141959298183878E+01   -1.9294033735938170E+00   -1.8605152904664887E+01
H    1.8229484398117389E+01    2.3632133214415549E-01   -1.7245870907037336E+01
H    1.6284323573470171E+01    1.8954280807969989E-01   -1.6892917417980765E+01
H    1.6510281281388824E+01   -1.9178940441393215E+00   -1.5445845150077343E+01
H    1.8372934954057111E+01   -2.2223184589463960E+00   -1.6041000449640851E+01
H    1.9070943302462748E+01    9.9916209396476399E-02   -1.4919289617694965E+01
H    1.7222903759720570E+01    3.0657450464856384E-01   -1.4250308969317039E+01
H    1.7382907450340962E+01   -1.7913318825225533E+00   -1.2816960386492303E+01
H    1.8973365506350131E+01   -2.4337391867871090E+00   -1.3775065773402629E+01
H    2.0355935436650331E+01   -3.5252413020833667E-01   -1.2867192173962032E+01
H    1.8756881230279724E+01    2.5017284669518242E-01   -1.1864293691237391E+01
H    1.8638842295565738E+01   -1.9974656880998340E+00   -1.0576320152366977E+01
H    2.0117490576105304E+01   -2.7389274649662241E+00   -1.1639977090747603E+01
H    2.0355865771686307E+01   -1.3078047034578189E+00   -9.0028873031705494E+00
H    2.1812081354981224E+01   -1.5838859614165488E+00   -1.0314931590327079E+01
H    2.0782541985525668E+01    1.2747468502996159E-01   -1.0321666815656418E+01
H    1.1944675213714341E+01   -2.0304490852337902E+00   -2.6415310035816471E+01
H    1.1227157576765451E+01   -5.2720875804034273E-01   -2.5198783017429466E+01
H    1.3175651983884700E+01   -5.2950408965418894E-01   -2.5756596014619902E+01
H    1.1860045837916664E+01   -1.1617103545410238E+01   -1.7967742142539464E+01
H    1.2116473310202018E+01   -9.0589213215783957E+00   -2.2917786391826741E+01
H    1.5152172504072750E+01   -1.2005112863428270E+01   -2.1421547584474261E+01
H    1.4268053003978755E+01   -1.1517671090176705E+01   -2.3168788432683069E+01
H    1.6287114111426103E+01   -9.8621383560159153E+00   -2.3662900386485862E+01
H    1.7766706797163227E+01   -8.5688225371565032E+00   -2.2770751268949038E+01
H    1.6478880070109735E+01   -8.6389803946748760E+00   -2.1260913807587325E+01
H    1.8539063760819655E+01   -9.5927678879142082E+00   -1.9709941848430343E+01