 # Version information for this restart file 
 # current date 2023-03-26 17:23:48.409
 # current working dir /mnt/scratch2/users/40265864/MSc_ML_MM/ln_replacements/xyz/Gd_L6_O_O_O_O/geometry_optimisation/run-0
 # Program compiled at                              Mon 24 Oct 18:14:20 BST 2022
 # Program compiled on                          login1.pri.kelvin2.alces.network
 # Program compiled for                                                    local
 # Source code revision number                                         svn:17462
 &GLOBAL
   PRINT_LEVEL  LOW
   PROJECT_NAME molecule_name
   RUN_TYPE  GEO_OPT
 &END GLOBAL
 &MOTION
   &GEO_OPT
     OPTIMIZER  BFGS
     MAX_DR     5.0000000000000000E-01
     MAX_FORCE     5.0000000000000000E-01
     RMS_DR     5.0000000000000003E-02
     RMS_FORCE     5.0000000000000003E-02
     STEP_START_VAL  3
   &END GEO_OPT
 &END MOTION
 &FORCE_EVAL
   METHOD  QS
   &DFT
     BASIS_SET_FILE_NAME ../BASIS_MOLOPT_UCL
     BASIS_SET_FILE_NAME BASIS_SET
     POTENTIAL_FILE_NAME ../POTENTIAL
     UKS  T
     MULTIPLICITY  0
     CHARGE  3
     &SCF
       MAX_SCF  50
       EPS_SCF     5.0000000000000002E-05
       SCF_GUESS  RESTART
       &OT  T
         MINIMIZER  DIIS
         PRECONDITIONER  FULL_KINETIC
       &END OT
       &OUTER_SCF  T
         EPS_SCF     5.0000000000000002E-05
         MAX_SCF  20
       &END OUTER_SCF
     &END SCF
     &MGRID
       NGRIDS  2
       CUTOFF     4.0000000000000000E+02
       REL_CUTOFF     5.0000000000000000E+01
     &END MGRID
     &XC
       DENSITY_CUTOFF     1.0000000000000000E-10
       GRADIENT_CUTOFF     1.0000000000000000E-10
       TAU_CUTOFF     1.0000000000000000E-10
       &XC_FUNCTIONAL  NO_SHORTCUT
         &PBE  T
         &END PBE
       &END XC_FUNCTIONAL
     &END XC
   &END DFT
   &SUBSYS
     &CELL
       A     3.6000000000000000E+01    0.0000000000000000E+00    0.0000000000000000E+00
       B     0.0000000000000000E+00    3.4000000000000000E+01    0.0000000000000000E+00
       C     0.0000000000000000E+00    0.0000000000000000E+00    3.8000000000000007E+01
       PERIODIC  NONE
       MULTIPLE_UNIT_CELL  1 1 1
     &END CELL
     &COORD
C    7.4337321245256660E-01    1.6903436152114821E+00    2.3475228431192265E+00
C   -1.3644272412007311E-02    7.2000965515301985E-01    1.3394272216386314E+00
C    7.8793659514310710E-01    5.5813150137376122E-01   -5.4441887254380204E-03
C    7.1384864485258062E-02   -4.3361474930289778E-01   -9.9325647993718025E-01
C    9.6818734745939716E-01   -6.5361332490270563E-01   -2.2655747526067240E+00
C    3.1374345090595224E-01   -1.6432283734677866E+00   -3.2958505339456696E+00
C    1.2705505006659932E+00   -1.8466586208189797E+00   -4.5278345142560630E+00
C    6.3733667504436808E-01   -2.8603829456719065E+00   -5.5451345101778839E+00
C    1.5959497184468159E+00   -3.1290875712402517E+00   -6.7600438517597379E+00
C    1.0602013966376338E+00   -4.3068481296745649E+00   -7.6541274992263926E+00
C    1.7718584611369192E+00   -4.3745942173322678E+00   -9.0494659469046379E+00
C    1.1735942943804403E+00   -5.5234079464012309E+00   -9.9469221808101214E+00
O    1.7109974349024870E+00   -5.2008950017365931E+00   -1.1361074509869438E+01
C    1.0081211636644096E+00   -6.2606673871452614E+00   -1.2241965202961879E+01
C    1.8683633102728694E+00   -6.1959505056169286E+00   -1.3552695405682012E+01
O    3.3092387024811876E+00   -6.5873756672712025E+00   -1.3109153756113793E+01
C    4.0558074972117604E+00   -6.5801612259003779E+00   -1.4379595553251820E+01
C    3.7984331353311833E+00   -7.7002422438501084E+00   -1.5328111084100124E+01
C    4.4072393609388447E+00   -7.4487769426884007E+00   -1.6635757992713977E+01
C    5.2595276628887531E+00   -6.2770643255875163E+00   -1.6876242391251125E+01
C    5.4779479292066666E+00   -5.1287974712665561E+00   -1.6017428579636640E+01
C    4.7266652736848371E+00   -5.2610463930315525E+00   -1.4763816717180545E+01
O    4.8729340576989202E+00   -4.2002199267625322E+00   -1.3765492563301516E+01
C    6.0075971453226540E+00   -4.7468773845479122E+00   -1.2857453370934646E+01
C    6.5232337378972209E+00   -3.5055975340131531E+00   -1.2025239771479452E+01
O    5.3317328437597018E+00   -2.9298663336081092E+00   -1.1234334089945934E+01
C    4.7074850808742230E+00   -1.8592984234885561E+00   -1.2172570191881380E+01
C    3.2481752345261365E+00   -1.6629384465078210E+00   -1.1609308337542325E+01
C    2.2833853394521824E+00   -1.1591246138147961E+00   -1.2733920875075398E+01
C    8.1175461914838432E-01   -1.0524982881179383E+00   -1.2207634009276871E+01
C   -1.9706392538578230E-01   -8.1243110524886386E-01   -1.3379719336257997E+01
C   -1.6489613152599549E+00   -6.3441898589538848E-01   -1.2821102728809311E+01
C   -2.6801917188891045E+00   -4.0949746579313195E-01   -1.3981749245532585E+01
C   -4.1192032293959349E+00   -2.0826386860956728E-01   -1.3385033325860039E+01
C   -5.1720323830990687E+00    1.2186973767525709E-01   -1.4506281834672833E+01
C   -6.5962740618663149E+00    3.8865792281546097E-01   -1.3881669230347960E+01
C   -7.6675276604329570E+00    8.0672684275343354E-01   -1.4976674714830409E+01
C   -9.1389303184688142E+00    1.1404568103832942E+00   -1.4356025739068210E+01
C    7.5627909838650043E+00   -4.0192476881860362E+00   -1.0942803809659337E+01
C    6.0112750324145736E+00   -6.5291566931389902E+00   -1.8133907392201188E+01
N    6.7355352763428558E+00   -5.4179327997562909E+00   -1.8678103747863720E+01
C    7.4757088242927932E+00   -5.8917004061984413E+00   -1.9816348759067651E+01
N    7.6940244117079759E+00   -7.2274925254453786E+00   -2.0345081535139574E+01
Gd    6.5172885416756055E+00   -9.2002634739743190E+00   -2.0373788933098339E+01
N    5.7853393523038577E+00   -7.8893968236139962E+00   -1.8610031321688911E+01
C    4.7858070274154381E+00   -8.4499490603633962E+00   -1.7708056194408343E+01
N    4.4765733687505804E+00   -9.8235299324303540E+00   -1.7345652785651719E+01
C    5.6844059552756967E+00   -1.0610804536090200E+01   -1.7562938892472978E+01
C    6.0787398361681291E+00   -1.1375516504964262E+01   -1.6331369898717345E+01
C    5.3396270563646748E+00   -1.1517262359022213E+01   -1.5087997317910880E+01
C    6.1899263832250266E+00   -1.2167148236731039E+01   -1.4084931295328586E+01
O    5.5186068581313465E+00   -1.2747336288614592E+01   -1.2922155837363098E+01
C    5.5620862286623414E+00   -1.1627658531739758E+01   -1.1864880523413992E+01
C    4.8102015495350727E+00   -1.2281169336255456E+01   -1.0641838171160208E+01
O    5.7340568135264549E+00   -1.3194101298242682E+01   -9.8306755927371796E+00
C    5.9100771460279411E+00   -1.4462731182045813E+01   -1.0703741933604057E+01
C    6.8614934860434529E+00   -1.5380141252831892E+01   -9.8480897516585806E+00
C    7.3151686047773330E+00   -1.6623370042176010E+01   -1.0688708031878317E+01
C    8.5115954719250837E+00   -1.7403558003885340E+01   -1.0039052553103703E+01
C    9.0862417981201631E+00   -1.8462072210908445E+01   -1.1040053448580384E+01
C    1.0338609650758235E+01   -1.9202312587129196E+01   -1.0457167716289678E+01
C    1.0914606347261424E+01   -2.0176732703067554E+01   -1.1544076353924748E+01
C    1.2145718516660395E+01   -2.0977353097739130E+01   -1.0994075871120531E+01
C    1.2684377994187809E+01   -2.1966382450733757E+01   -1.2087378305462332E+01
C    1.3859142865980134E+01   -2.2838049111404466E+01   -1.1520902119243694E+01
C    1.4350080006734570E+01   -2.3874696616359696E+01   -1.2598145286696541E+01
C    1.5488716209468969E+01   -2.4814817228728245E+01   -1.2001256770841632E+01
C    4.3846433947155896E+00   -1.1117842509127831E+01   -9.6553341402673993E+00
C    7.7091542818484786E+00   -1.2227723030168978E+01   -1.4115560602307299E+01
C    8.4412155890631695E+00   -1.2096808254026078E+01   -1.5400750388288818E+01
C    7.5126222271119030E+00   -1.1661255647859495E+01   -1.6446383348862625E+01
C    7.9292435246850967E+00   -1.1109341125570735E+01   -1.7773668920765751E+01
N    9.3110804686122126E+00   -1.1267512424225528E+01   -1.8121687268310058E+01
C    9.5404411220972882E+00   -1.0544250610241868E+01   -1.9341589367849544E+01
N    8.7488193148227289E+00   -9.6085970886281515E+00   -2.0116662000652685E+01
C    9.6098162228631683E+00   -9.2238767579839411E+00   -2.1244899122066979E+01
N    9.5440974302041930E+00   -8.0301766312280005E+00   -2.2066536716396712E+01
C    8.6768635227733473E+00   -7.0501636091784201E+00   -2.1433227953986449E+01
C    9.0514742251925195E+00   -5.5969485338787308E+00   -2.1573658193449347E+01
C    8.3324574319689297E+00   -4.8856389977372032E+00   -2.0514609149569328E+01
C    8.6399307166556198E+00   -3.5897450649008804E+00   -1.9939599501451543E+01
C    9.8310444336200575E+00   -3.0060829108459108E+00   -2.0567689539517257E+01
O    1.0310811437043352E+01   -1.7455954161450853E+00   -1.9994521593998297E+01
C    1.1564250259685458E+01   -2.1752270909609206E+00   -1.9186365012449180E+01
C    1.2096615245639580E+01   -8.4934412190918085E-01   -1.8503333163759130E+01
O    1.2792463248099555E+01    1.0152099674099667E-01   -1.9495753273214365E+01
C    1.1637499338994161E+01    5.5021472961883700E-01   -2.0429675453345265E+01
C    1.2183932433144951E+01    1.7560849533583356E+00   -2.1271990892850098E+01
C    1.1005591145989854E+01    2.2836459631128094E+00   -2.2170577931093550E+01
C    1.1477018274309948E+01    2.9064397342326505E+00   -2.3530185745307111E+01
C    1.0225731849239464E+01    3.1450037120764218E+00   -2.4439426805996003E+01
C    1.0586257573719445E+01    3.7623864175170691E+00   -2.5832849077560336E+01
C    9.2667551823770715E+00    3.8340335986918479E+00   -2.6677363077544694E+01
C    9.4769390770585584E+00    4.5445645812867994E+00   -2.8057876705143570E+01
C    8.1024437689352808E+00    4.6105501600169934E+00   -2.8810837782893802E+01
C    8.2173105384084977E+00    5.3969261102814405E+00   -3.0162111211437431E+01
C    6.7994354623595008E+00    5.5101601800948279E+00   -3.0833482115713331E+01
C    6.8648671164878055E+00    6.3642815395688146E+00   -3.2174558364716447E+01
C    1.3207362244992735E+01   -1.2490710392302713E+00   -1.7442138332652966E+01
C    1.0675790528609921E+01   -3.7861532437469818E+00   -2.1574037783125384E+01
C    1.0277293491899773E+01   -5.0784816732829103E+00   -2.2176443601313824E+01
O    1.1859811193878652E+01   -3.1355224005722309E+00   -2.2135009618862806E+01
C    1.1327367680308662E+01   -2.4171216300200848E+00   -2.3397252580072323E+01
C    1.2618320581111629E+01   -2.0397311968455862E+00   -2.4226283829497536E+01
O    1.3449455798156876E+01   -1.0603743056910671E+00   -2.3375258408470639E+01
C    1.4423720242135142E+01   -1.9600251749102311E+00   -2.2576375551850020E+01
C    1.5296834086867589E+01   -9.2387946536092813E-01   -2.1782110564012324E+01
C    1.6146384085162346E+01   -1.6443150794808699E+00   -2.0677932542069581E+01
C    1.6463498368028635E+01   -6.7168525225830733E-01   -1.9490415699657362E+01
C    1.7071893758735925E+01   -1.4464714549848159E+00   -1.8277942001130828E+01
C    1.7277263236941149E+01   -4.9683223401456666E-01   -1.7048836484033387E+01
C    1.7549857464341670E+01   -1.3706988204462007E+00   -1.5775736962507569E+01
C    1.8076157534727169E+01   -5.0351097547853096E-01   -1.4581321613968610E+01
C    1.8413092933478499E+01   -1.4385469460493123E+00   -1.3367366399817980E+01
C    1.9336886150002695E+01   -7.2128706616967508E-01   -1.2322688332687022E+01
C    1.9673070701882612E+01   -1.7182918325198235E+00   -1.1151988079275050E+01
C    2.0720713530653878E+01   -1.0838765336477536E+00   -1.0134255561289532E+01
C    1.2186366431809899E+01   -1.2333729169155678E+00   -2.5516750446258634E+01
C    1.0929963697053276E+01   -9.9507444010211028E+00   -2.1175856101248893E+01
C    1.0914966586466720E+01   -1.0683062021970601E+01   -1.9909769053247789E+01
C    1.2037755216269465E+01   -1.1146404827263373E+01   -1.9113547488764887E+01
C    1.3314545846992694E+01   -1.0829378352795267E+01   -1.9766643553403860E+01
C    1.3367721094560874E+01   -1.0037573809137244E+01   -2.1074896564694033E+01
C    1.2179939308012219E+01   -9.6241084225046425E+00   -2.1855731219945877E+01
O    1.4675596823919605E+01   -9.7803195169628889E+00   -2.1685582437274377E+01
C    1.5061608767474747E+01   -1.1151494776922084E+01   -2.2300338053309865E+01
C    1.6451724624258251E+01   -1.0851654039007451E+01   -2.2979479776537826E+01
O    1.7458327240465000E+01   -1.0615657676057946E+01   -2.1834483007414928E+01
C    1.7542886693483386E+01   -9.0811736166853798E+00   -2.1680594206054995E+01
C    1.8726021972336262E+01   -8.8576512978535060E+00   -2.0669232510966509E+01
C    1.8743804757969833E+01   -7.3577427990902153E+00   -2.0221537912320304E+01
C    1.9959768192797412E+01   -7.0322130899676596E+00   -1.9286879709562353E+01
C    1.9796028748541936E+01   -5.5951309805812866E+00   -1.8688841393424784E+01
C    2.1016122326907755E+01   -5.1622451257156285E+00   -1.7804912555667141E+01
C    2.0775601389175737E+01   -3.6844823709343126E+00   -1.7330027111784737E+01
C    2.1905687367357860E+01   -3.1654704290482760E+00   -1.6372047308064236E+01
C    2.1682415305132658E+01   -1.6332230231246836E+00   -1.6093083429042160E+01
C    2.2737588903257851E+01   -1.0756507316609847E+00   -1.5070192628364675E+01
C    2.2634719962440403E+01    4.8843297524212537E-01   -1.4946896374120634E+01
C    2.3736142034615543E+01    1.0682549619431496E+00   -1.3928185751067435E+01
C    1.6961917530835656E+01   -1.2120942172470071E+01   -2.3763980592752223E+01
O    1.4533026487454043E+01   -1.1089718402609627E+01   -1.8997425960690634E+01
C    1.4909521980699633E+01   -9.6745157524963741E+00   -1.8469758316731703E+01
C    1.5970327178859280E+01   -9.9156116887451624E+00   -1.7311397772159175E+01
O    1.7327436718014713E+01   -1.0420230494624638E+01   -1.7815624621945577E+01
C    1.6996630638866616E+01   -1.1816359667370822E+01   -1.8396342449725960E+01
C    1.8370917875704098E+01   -1.2571357721786717E+01   -1.8504679178043009E+01
C    1.8106981618431242E+01   -1.4039764267182399E+01   -1.9018806777040680E+01
C    1.8970260502367040E+01   -1.4413758794189571E+01   -2.0275708240914827E+01
C    1.8439184468297846E+01   -1.5734824838013159E+01   -2.0925351250140057E+01
C    1.9354787861528308E+01   -1.6221301930040848E+01   -2.2099270277780974E+01
C    1.8674898556310357E+01   -1.7445334950648459E+01   -2.2804765051600448E+01
C    1.9611824580348330E+01   -1.8072314210305578E+01   -2.3893281903351056E+01
C    1.8892805161056323E+01   -1.9284511162714438E+01   -2.4581821471322471E+01
C    1.9837565173478382E+01   -1.9990300597717230E+01   -2.5615751580824529E+01
C    1.9099871794288731E+01   -2.1206156340953253E+01   -2.6286483615931857E+01
C    2.0068289547187149E+01   -2.1986528505560745E+01   -2.7267235051852317E+01
C    1.6294229643484403E+01   -8.5209277457716865E+00   -1.6619438171952545E+01
N    6.8074364042070226E+00   -1.0479339468324111E+01   -1.8474919560612761E+01
O    8.3342392801590197E+00   -1.2545434112004783E+01   -1.2836351176899278E+01
C    9.3865811981130545E+00   -1.3662097719815144E+01   -1.3039097273491212E+01
C    1.0463963209374255E+01   -1.3390074180829791E+01   -1.1914053260568409E+01
O    9.6635809910780086E+00   -1.3317532690552516E+01   -1.0599081302628095E+01
C    9.5737327124192415E+00   -1.1810621173922581E+01   -1.0257791221750738E+01
C    8.6738409037302429E+00   -1.1799433531188381E+01   -8.9693847916194471E+00
C    8.2629859599209361E+00   -1.0346159121817372E+01   -8.5552913649874220E+00
C    7.3883774790762420E+00   -1.0384013415536343E+01   -7.2530036302670373E+00
C    6.6980950025745285E+00   -9.0138270410595904E+00   -6.9432278348786580E+00
C    5.7831978926437015E+00   -9.1515712961205331E+00   -5.6756841951648953E+00
C    4.9702282858788722E+00   -7.8339361318112921E+00   -5.4243155389380799E+00
C    4.0619868426450383E+00   -7.9727890055283179E+00   -4.1511563988019695E+00
C    3.2091861600780076E+00   -6.6701138419891137E+00   -3.9496254150397396E+00
C    2.3828968016186343E+00   -6.7234525553845694E+00   -2.6164753113302956E+00
C    1.4753025175719265E+00   -5.4421693919147005E+00   -2.4779025398624990E+00
C    8.0870226665506106E-01   -5.3927395943502754E+00   -1.0360386479077242E+00
C    1.1410669414313082E+01   -1.4656761876972828E+01   -1.1816403596362635E+01
O    4.3113993434682030E+00   -8.4360845986493516E+00   -2.0863709636843989E+01
O    4.9885329767028201E+00   -1.1001107969734818E+01   -2.0572351528998890E+01
O    6.2765454076017573E+00   -8.3524944203140432E+00   -2.2479311308453880E+01
O    7.2395853874709664E+00   -1.0885742035556961E+01   -2.1770512456932991E+01
C   -4.8504417751663198E-01   -5.8834643155655568E+00   -1.2617805892212932E+01
H    4.7918880240505535E-01    1.3726680385389212E+00    3.5018223093983911E+00
H    1.9556458537852128E+00    1.6058696680928151E+00    2.1648364701090141E+00
H    3.9986702639275840E-01    2.8542747170725544E+00    2.1639147543769073E+00
H   -1.6488121136711337E-01   -3.9014581218104533E-01    1.8361821499496598E+00
H   -1.1364061781012611E+00    1.1504121967802681E+00    1.0900714198372012E+00
H    9.3194009706076830E-01    1.6510646640873756E+00   -5.4678374935667906E-01
H    1.9155757532609750E+00    1.4236771540716681E-01    2.4083633977278862E-01
H   -1.3526125871412606E-01   -1.5062785603574942E+00   -4.3293105276225841E-01
H   -1.0261703445064745E+00    1.2685390019121339E-02   -1.3154704445171106E+00
H    1.1801996033534101E+00    4.3055404256798513E-01   -2.8006356537193384E+00
H    2.0638013161356392E+00   -1.0830401138078234E+00   -1.9191005385807944E+00
H    9.2044314788874718E-02   -2.7264902332738097E+00   -2.7626787174526575E+00
H   -7.6535750094927979E-01   -1.1943043660523787E+00   -3.6741883937697049E+00
H    1.4797511493779245E+00   -7.6888177549245196E-01   -5.0773489612431355E+00
H    2.3557824653148605E+00   -2.2661587292567504E+00   -4.1419885856686562E+00
H    4.0273297204314384E-01   -3.9214504405839707E+00   -4.9790549956562646E+00
H   -4.2933902923461625E-01   -2.4263352041953525E+00   -5.9703907003703316E+00
H    1.7059018961729369E+00   -2.1307787955047588E+00   -7.4669029047364397E+00
H    2.7282276305753310E+00   -3.4005908110713143E+00   -6.3696663077796734E+00
H    1.1907507094821419E+00   -5.3690369232663402E+00   -7.0407942331851663E+00
H   -1.5403879490192265E-01   -4.1731181905297730E+00   -7.8053899276250087E+00
H    1.6474258498201599E+00   -3.3003309831766403E+00   -9.6297338835099122E+00
H    2.9757736910572996E+00   -4.5525522421697984E+00   -8.8860724447747863E+00
H    1.5600776148583999E+00   -6.6461257159952583E+00   -9.5802859599126204E+00
H   -6.2869061171394611E-02   -5.5090624130741661E+00   -9.9053405865401576E+00
H    1.1061403506657808E+00   -7.3944837977940789E+00   -1.1759445266932465E+01
H    1.4370247844167807E+00   -6.9293915239053545E+00   -1.4454830877353086E+01
H    1.9119763340578018E+00   -5.0274172591264144E+00   -1.3978086975057929E+01
H    3.2200529970224991E+00   -8.7565128077992824E+00   -1.5120100590807899E+01
H    6.1894892567107895E+00   -4.1923988457423977E+00   -1.6379940599694518E+01
H    5.5187953903045965E+00   -5.6211824049807610E+00   -1.2127596597515304E+01
H    6.9511431164673567E+00   -5.2165800332007466E+00   -1.3520217171647666E+01
H    6.9854235493688881E+00   -2.6676979862113157E+00   -1.2804833308770457E+01
H    5.3857592079603824E+00   -8.1693263800433791E-01   -1.2088023371798702E+01
H    4.6708945296032933E+00   -2.2254529456941063E+00   -1.3351365884081931E+01
H    2.8391518487768495E+00   -2.7357157022285068E+00   -1.1174672117885127E+01
H    3.2639429793351544E+00   -8.6301143049334594E-01   -1.0680569306912963E+01
H    2.6491696841673491E+00   -6.7301740701594170E-02   -1.3173174146261776E+01
H    2.3224458350488733E+00   -1.9261093299543781E+00   -1.3693890676327428E+01
H    5.4059493313348173E-01   -2.0847162019357395E+00   -1.1600666413223001E+01
H    7.4368545268736053E-01   -1.4397172006671358E-01   -1.1384250828158823E+01
H    1.4790066040405486E-01    1.8286185396561039E-01   -1.4008264050014114E+01
H   -1.4635022125996475E-01   -1.7563459286786716E+00   -1.4161323912118203E+01
H   -1.9635888509296866E+00   -1.6208046261986224E+00   -1.2162819252850472E+01
H   -1.6775208837576729E+00    3.1743624452295655E-01   -1.2048128980823083E+01
H   -2.3550953621653585E+00    5.7220365927480976E-01   -1.4642013309872674E+01
H   -2.6639528604270835E+00   -1.3675791647092406E+00   -1.4749068255026364E+01
H   -4.4505625465369549E+00   -1.2188255053944519E+00   -1.2771775433779972E+01
H   -4.0867524507417006E+00    6.9753308518297130E-01   -1.2558589677286621E+01
H   -4.7832914767826233E+00    1.0990877658272866E+00   -1.5140119762968762E+01
H   -5.2141124929575238E+00   -8.1052677560874575E-01   -1.5305432964050782E+01
H   -6.9683551135074424E+00   -6.2539451545408464E-01   -1.3297820837301256E+01
H   -6.4788780213881836E+00    1.2613686475100170E+00   -1.3026039474512352E+01
H   -7.1560229127382993E+00    1.7678242714293875E+00   -1.5559769548204404E+01
H   -7.6726736788535392E+00   -8.6525900469150055E-02   -1.5827103588921785E+01
H   -8.9737028342996190E+00    1.1530039913400780E+00   -1.3134728624455946E+01
H   -9.4184714570698898E+00    2.2772834309942187E+00   -1.4727332330046721E+01
H   -1.0095732733587040E+01    3.8346402020652126E-01   -1.4637286326560455E+01
H    7.5440228149236601E+00   -5.2462471654573450E+00   -1.0915086720684176E+01
H    8.6754023150303645E+00   -3.5757307430710918E+00   -1.1189941806297576E+01
H    7.1439154733162065E+00   -3.5779931003883885E+00   -9.8725203577092255E+00
H    4.1477441063297693E+00   -1.1284745951170274E+01   -1.5014466550195307E+01
H    6.7338263119043891E+00   -1.1313946486336091E+01   -1.1608168063236585E+01
H    4.9354691168213956E+00   -1.0637909333453601E+01   -1.2286953378228583E+01
H    3.8581040250791721E+00   -1.2906881845144591E+01   -1.1129665729743186E+01
H    4.8096594335334251E+00   -1.5014646508017449E+01   -1.0889270354126220E+01
H    6.3999783969307531E+00   -1.4232959222681382E+01   -1.1819575095579848E+01
H    7.8501447107138231E+00   -1.4735660754517466E+01   -9.5107423094318282E+00
H    6.2882600618132471E+00   -1.5762240863310769E+01   -8.8297927128810780E+00
H    6.3735964815621706E+00   -1.7400044385469855E+01   -1.0872671015739650E+01
H    7.6443435036783720E+00   -1.6264087476233097E+01   -1.1817718151494805E+01
H    9.3749258606422021E+00   -1.6596829801722574E+01   -9.7085433549282918E+00
H    8.1304521386878932E+00   -1.7942350395778458E+01   -9.0018033259355725E+00
H    8.2068330424903593E+00   -1.9271186967751724E+01   -1.1319465522069287E+01
H    9.3813006936758114E+00   -1.7899283647991115E+01   -1.2088304878614542E+01
H    1.1190525428166390E+01   -1.8387104992156747E+01   -1.0118766973790262E+01
H    1.0028242851815865E+01   -1.9828194585856682E+01   -9.4487739568841196E+00
H    1.0040526732258082E+01   -2.0957705655623840E+01   -1.1905592582487785E+01
H    1.1243020934968856E+01   -1.9541648199014279E+01   -1.2541280227257559E+01
H    1.3036567562940039E+01   -2.0205415153659818E+01   -1.0653262646073356E+01
H    1.1824409629378122E+01   -2.1604650462216686E+01   -9.9904635637969559E+00
H    1.1775562871427823E+01   -2.2695701386839833E+01   -1.2471238020037582E+01
H    1.3065215181307448E+01   -2.1339787709068784E+01   -1.3071857488000285E+01
H    1.4787933661236778E+01   -2.2117257997008579E+01   -1.1168061398014242E+01
H    1.3482294752214614E+01   -2.3436727518448905E+01   -1.0519261341245873E+01
H    1.3382836459850850E+01   -2.4529247526189280E+01   -1.2967547720929774E+01
H    1.4755219948111593E+01   -2.3263487380606289E+01   -1.3582211163716716E+01
H    1.5437433593837099E+01   -2.4782202837540233E+01   -1.0774371975473805E+01
H    1.5325316180162806E+01   -2.5967891253455043E+01   -1.2382188797356655E+01
H    1.6597491830790190E+01   -2.4429020017076009E+01   -1.2355893893963191E+01
H    4.5695722089529403E+00   -1.1564170800544986E+01   -8.5292843126384739E+00
H    5.1173128996644710E+00   -1.0151116302996918E+01   -9.8365449270375116E+00
H    3.2055127123684595E+00   -1.0844284271479466E+01   -9.8405718673730291E+00
H    9.6312292213593995E+00   -1.2206902945772214E+01   -1.5691038984872382E+01
H    7.9968097507217211E+00   -3.1241585840312736E+00   -1.8992579491038757E+01
H    1.1214551824082204E+01   -2.9729408483337165E+00   -1.8296271577099969E+01
H    1.2396577246614447E+01   -2.7146998068302395E+00   -1.9924600386621428E+01
H    1.1096331840018099E+01   -3.1085503641218049E-01   -1.8003528592514410E+01
H    1.1231862325490647E+01   -3.4877016733539973E-01   -2.1178332536451705E+01
H    1.0649798083983296E+01    9.0665432351278163E-01   -1.9763514655119337E+01
H    1.2585187008689012E+01    2.6443593472037561E+00   -2.0525465783135136E+01
H    1.3115062135542930E+01    1.3743193330985639E+00   -2.1969846854396604E+01
H    1.0228973897665382E+01    1.3657527449392790E+00   -2.2421716676862559E+01
H    1.0319674022444918E+01    3.1046227073314530E+00   -2.1559834359237041E+01
H    1.2073626571900983E+01    3.9579187716922752E+00   -2.3311325543224402E+01
H    1.2281241498281119E+01    2.1513101790831057E+00   -2.4067244393886536E+01
H    9.6419900586295988E+00    2.0789189691989032E+00   -2.4597885172034616E+01
H    9.4358524659743441E+00    3.8749183238350953E+00   -2.3849930213319734E+01
H    1.1067881275811972E+01    4.8816645318603893E+00   -2.5693319690016839E+01
H    1.1428527906978923E+01    3.0750088624939527E+00   -2.6401195360511075E+01
H    8.8302178727460632E+00    2.7022267307465708E+00   -2.6860004809188510E+01
H    8.4053998282072815E+00    4.4295788206650899E+00   -2.6039771986158776E+01
H    9.9179804703267145E+00    5.6767383529620883E+00   -2.7890815148626992E+01
H    1.0301747750869756E+01    3.9377760907924051E+00   -2.8734207739944100E+01
H    7.6881570291155850E+00    3.4752327670291403E+00   -2.9024539890748006E+01
H    7.2666092353951086E+00    5.1491454958396403E+00   -2.8092876212044366E+01
H    8.6660128646728598E+00    6.5188449018653918E+00   -2.9952557468967363E+01
H    9.0073165658205134E+00    4.8346479061772314E+00   -3.0914836577231057E+01
H    6.3735824668473393E+00    4.3799382056428335E+00   -3.1050698377550951E+01
H    6.0349879075978219E+00    6.0176545718506196E+00   -3.0021975460262247E+01
H    6.9261146084520995E+00    5.6255322469813311E+00   -3.3151503811591624E+01
H    5.8681247215208900E+00    7.0708352354377864E+00   -3.2268496629555472E+01
H    7.8677263322471793E+00    7.0732123066149111E+00   -3.2153424007981506E+01
H    1.2755754735551681E+01   -1.1374887921423209E+00   -1.6309733674943175E+01
H    1.3589218088431823E+01   -2.3935685685643677E+00   -1.7664489139385378E+01
H    1.4135901862790057E+01   -4.7161305395671299E-01   -1.7631763569833002E+01
H    1.0870458370915221E+01   -5.7717926022039814E+00   -2.2996871383615293E+01
H    1.0591576407079183E+01   -3.1541601922907434E+00   -2.4081793910893300E+01
H    1.0684719610574241E+01   -1.4125593434175592E+00   -2.3053276734689327E+01
H    1.3238113243509172E+01   -3.0793673881669847E+00   -2.4471357235871395E+01
H    1.3814585528840654E+01   -2.7245708884343873E+00   -2.1814146234593689E+01
H    1.5102793882459897E+01   -2.6538786524547175E+00   -2.3354635350487158E+01
H    1.6032667851545554E+01   -3.2652269300085274E-01   -2.2562986871089070E+01
H    1.4550837218520165E+01   -1.1025374674657590E-01   -2.1247372753182443E+01
H    1.5543653061019251E+01   -2.6171109703950526E+00   -2.0232954109052933E+01
H    1.7196323168154958E+01   -2.0960911855142168E+00   -2.1137845343964752E+01
H    1.7229506543351434E+01    2.0552046701466214E-01   -1.9885421701522834E+01
H    1.5425257781282479E+01   -1.0264828705530683E-01   -1.9177189493111761E+01
H    1.6318394050230804E+01   -2.3632778250069300E+00   -1.7977674164625643E+01
H    1.8139849970310198E+01   -1.9572992684554069E+00   -1.8604576275025853E+01
H    1.8223367361667368E+01    2.5746099898509800E-01   -1.7247826819365645E+01
H    1.6285977223884036E+01    2.0761053241586389E-01   -1.6894392959079770E+01
H    1.6516680653040900E+01   -1.9486237736177234E+00   -1.5447683731566963E+01
H    1.8372328109524094E+01   -2.2368214628377006E+00   -1.6046842112958448E+01
H    1.9076966301489612E+01    1.1255076403802200E-01   -1.4923938748379829E+01
H    1.7234292692280640E+01    3.3210672350484355E-01   -1.4260691507623731E+01
H    1.7381613404951217E+01   -1.8148117604635903E+00   -1.2817622835488660E+01
H    1.8971516978878753E+01   -2.4493079097092711E+00   -1.3775680589644143E+01
H    2.0363977979137807E+01   -3.3383091616927457E-01   -1.2871303721555565E+01
H    1.8772192749601246E+01    2.7194502884284727E-01   -1.1871784015446281E+01
H    1.8627665857716977E+01   -2.0142562126478225E+00   -1.0584830522297791E+01
H    2.0102388506117894E+01   -2.7573259287736058E+00   -1.1641873758221099E+01
H    2.0370916600302731E+01   -1.2982069200099569E+00   -8.9796889012136685E+00
H    2.1832889221857386E+01   -1.5697134527039533E+00   -1.0308892346365196E+01
H    2.0783452505721247E+01    1.2879383935965105E-01   -1.0317640112095642E+01
H    1.1932209900218041E+01   -2.0068024747882380E+00   -2.6432844540301392E+01
H    1.1228864385958186E+01   -5.1885571144549258E-01   -2.5229058852682225E+01
H    1.3152023848771467E+01   -5.2369509342162590E-01   -2.5789825894376616E+01
H    1.1863649827764528E+01   -1.1609153150981037E+01   -1.7976768845607300E+01
H    1.2148316608669896E+01   -9.0329101347316101E+00   -2.2926154349137061E+01
H    1.5146961734414214E+01   -1.2003978308616725E+01   -2.1403993025053175E+01
H    1.4233202944306925E+01   -1.1510109582537044E+01   -2.3157858236654462E+01
H    1.6305052394385530E+01   -9.8494368889403283E+00   -2.3687116344028638E+01
H    1.7767560183545466E+01   -8.5470873575244468E+00   -2.2780564361722263E+01
H    1.6471427081630441E+01   -8.6204787254056541E+00   -2.1244966754576836E+01
H    1.8571318958325676E+01   -9.5911924109209075E+00   -1.9692968226132528E+01