 # Version information for this restart file 
 # current date 2023-03-26 17:20:15.420
 # current working dir /mnt/scratch2/users/40265864/MSc_ML_MM/ln_replacements/xyz/Gd_L6_O_O_O_O/geometry_optimisation/run-0
 # Program compiled at                              Mon 24 Oct 18:14:20 BST 2022
 # Program compiled on                          login1.pri.kelvin2.alces.network
 # Program compiled for                                                    local
 # Source code revision number                                         svn:17462
 &GLOBAL
   PRINT_LEVEL  LOW
   PROJECT_NAME molecule_name
   RUN_TYPE  GEO_OPT
 &END GLOBAL
 &MOTION
   &GEO_OPT
     OPTIMIZER  BFGS
     MAX_DR     5.0000000000000000E-01
     MAX_FORCE     5.0000000000000000E-01
     RMS_DR     5.0000000000000003E-02
     RMS_FORCE     5.0000000000000003E-02
     STEP_START_VAL  1
   &END GEO_OPT
 &END MOTION
 &FORCE_EVAL
   METHOD  QS
   &DFT
     BASIS_SET_FILE_NAME ../BASIS_MOLOPT_UCL
     BASIS_SET_FILE_NAME BASIS_SET
     POTENTIAL_FILE_NAME ../POTENTIAL
     UKS  T
     MULTIPLICITY  0
     CHARGE  3
     &SCF
       MAX_SCF  50
       EPS_SCF     5.0000000000000002E-05
       SCF_GUESS  RESTART
       &OT  T
         MINIMIZER  DIIS
         PRECONDITIONER  FULL_KINETIC
       &END OT
       &OUTER_SCF  T
         EPS_SCF     5.0000000000000002E-05
         MAX_SCF  20
       &END OUTER_SCF
     &END SCF
     &MGRID
       NGRIDS  2
       CUTOFF     4.0000000000000000E+02
       REL_CUTOFF     5.0000000000000000E+01
     &END MGRID
     &XC
       DENSITY_CUTOFF     1.0000000000000000E-10
       GRADIENT_CUTOFF     1.0000000000000000E-10
       TAU_CUTOFF     1.0000000000000000E-10
       &XC_FUNCTIONAL  NO_SHORTCUT
         &PBE  T
         &END PBE
       &END XC_FUNCTIONAL
     &END XC
   &END DFT
   &SUBSYS
     &CELL
       A     3.6000000000000000E+01    0.0000000000000000E+00    0.0000000000000000E+00
       B     0.0000000000000000E+00    3.4000000000000000E+01    0.0000000000000000E+00
       C     0.0000000000000000E+00    0.0000000000000000E+00    3.8000000000000007E+01
       PERIODIC  NONE
       MULTIPLE_UNIT_CELL  1 1 1
     &END CELL
     &COORD
C    7.4400623161581769E-01    1.6798149735609422E+00    2.3277353956792974E+00
C   -2.9316012651711175E-03    7.2295230180514269E-01    1.3286553798506604E+00
C    7.9034550043207230E-01    5.5236065068433782E-01   -1.1013468406038658E-02
C    6.8162395021818353E-02   -4.3769253091845067E-01   -9.9409829469723721E-01
C    9.6621878946279049E-01   -6.5069532686435472E-01   -2.2664841643552358E+00
C    3.1231514941748495E-01   -1.6367318827134938E+00   -3.3006576995353121E+00
C    1.2657527739609717E+00   -1.8442628639663972E+00   -4.5367022950308975E+00
C    6.4636799806389222E-01   -2.8623763735298819E+00   -5.5645504553972502E+00
C    1.6063147858983753E+00   -3.1314310389835116E+00   -6.7865483218511651E+00
C    1.0465532724383899E+00   -4.3220671751950892E+00   -7.6605131651932616E+00
C    1.7511092424462211E+00   -4.4148550091460690E+00   -9.0630428702754955E+00
C    1.1764274622932658E+00   -5.5438976939577023E+00   -1.0010576824463554E+01
O    1.7289986945728748E+00   -5.1549489408151281E+00   -1.1375163966290623E+01
C    1.0547805924631621E+00   -6.2408015888470816E+00   -1.2202143567215275E+01
C    1.8938418476446353E+00   -6.1909573251723620E+00   -1.3544316857565690E+01
O    3.3052963986747557E+00   -6.5946249325319810E+00   -1.3200252682789209E+01
C    3.9787404404346414E+00   -6.5370279702579550E+00   -1.4461257437615396E+01
C    3.8779124249471231E+00   -7.6811222177916481E+00   -1.5370247184991065E+01
C    4.6122690726847573E+00   -7.5137210734748203E+00   -1.6596819850002994E+01
C    5.3317004391139724E+00   -6.3075174985702507E+00   -1.6886364229168333E+01
C    5.5164849187727043E+00   -5.1727490925081909E+00   -1.6027202560837488E+01
C    4.8183385283756444E+00   -5.3380877068842558E+00   -1.4761774254253449E+01
O    4.9613187887412105E+00   -4.2404239636095848E+00   -1.3863875904090268E+01
C    6.0087749418956333E+00   -4.7508793652939021E+00   -1.2908097157689308E+01
C    6.4542630578335176E+00   -3.4817127183246237E+00   -1.2066933032719151E+01
O    5.2880297409702193E+00   -2.9659492270696215E+00   -1.1261215931745941E+01
C    4.7346829544937110E+00   -1.9064584208367930E+00   -1.2193026891076430E+01
C    3.2747152230653476E+00   -1.6624552314173684E+00   -1.1639916622903240E+01
C    2.2931654004285011E+00   -1.1597279687521096E+00   -1.2751942230763547E+01
C    8.3049493115254047E-01   -1.0595761944442439E+00   -1.2191299260798376E+01
C   -1.7663728787535538E-01   -8.1283205300887840E-01   -1.3372249506885161E+01
C   -1.6332951719363340E+00   -6.3591788876845479E-01   -1.2821185519396453E+01
C   -2.6671931629805381E+00   -4.1017214370780630E-01   -1.3979049659141330E+01
C   -4.1020493191759400E+00   -2.1101040589042180E-01   -1.3379937956649272E+01
C   -5.1413046382192285E+00    1.1624507024463238E-01   -1.4505205501967358E+01
C   -6.5518829399077729E+00    3.8452958454389918E-01   -1.3881225024356221E+01
C   -7.5869128014827112E+00    8.2096506056472329E-01   -1.4972692705553861E+01
C   -9.0085264136615493E+00    1.1523102103874037E+00   -1.4370351856740987E+01
C    7.4905967408969563E+00   -4.0117501445208248E+00   -1.0995257721343460E+01
C    6.0265705848350901E+00   -6.5481161895114441E+00   -1.8133871835664571E+01
N    6.7594803225617639E+00   -5.5400000000000009E+00   -1.8701548900011453E+01
C    7.4428390402914202E+00   -5.9271610809256936E+00   -1.9835830522095481E+01
N    7.6991214122741090E+00   -7.2304184488600676E+00   -2.0352084593272014E+01
Gd    6.5522586898944457E+00   -9.1443469376198667E+00   -2.0267424251151958E+01
N    5.8332345268742536E+00   -7.8762439699246718E+00   -1.8538615784343886E+01
C    4.7880660288880943E+00   -8.4192475555761099E+00   -1.7746686100307347E+01
N    4.5828265650186406E+00   -9.7771779090095894E+00   -1.7465393969366890E+01
C    5.6826444436190826E+00   -1.0631303761397151E+01   -1.7592070126473203E+01
C    6.1729490124573623E+00   -1.1218670182978702E+01   -1.6322639102395744E+01
C    5.4472510764929556E+00   -1.1479589965358130E+01   -1.5114675615127620E+01
C    6.2494564345298853E+00   -1.2116595294165846E+01   -1.4085003788927160E+01
O    5.5355737516319454E+00   -1.2671119011343082E+01   -1.2989650390236086E+01
C    5.5534734296677994E+00   -1.1630119194755512E+01   -1.1920161767009537E+01
C    4.8411952966968617E+00   -1.2340487218225675E+01   -1.0690834506811639E+01
O    5.7820496669263566E+00   -1.3178304259688298E+01   -9.8604262792066031E+00
C    5.8791810436837819E+00   -1.4437147322938626E+01   -1.0705123708418927E+01
C    6.8348349731177196E+00   -1.5375021902441919E+01   -9.8672804910292182E+00
C    7.2989785081758169E+00   -1.6623811335620406E+01   -1.0701975142953682E+01
C    8.4969798148394471E+00   -1.7389020794510532E+01   -1.0026899015857731E+01
C    9.0735749104999748E+00   -1.8451869212137872E+01   -1.1031414123119637E+01
C    1.0330187952597381E+01   -1.9198717648337066E+01   -1.0459636833029874E+01
C    1.0912642799526139E+01   -2.0175908087554909E+01   -1.1541886872261422E+01
C    1.2143901815480357E+01   -2.0977279701599990E+01   -1.0993567298124042E+01
C    1.2677042309866691E+01   -2.1965014111738508E+01   -1.2090377879283256E+01
C    1.3848852088617182E+01   -2.2831358296700945E+01   -1.1518881718662271E+01
C    1.4348461559846902E+01   -2.3865300286537739E+01   -1.2582590354809641E+01
C    1.5470965880054846E+01   -2.4795610991069211E+01   -1.1998076431535408E+01
C    4.4180810166773430E+00   -1.1162725738496265E+01   -9.7259998608694040E+00
C    7.7304111806750866E+00   -1.2267672692246924E+01   -1.4187526433302416E+01
C    8.4561302475493658E+00   -1.2075963750988581E+01   -1.5448276226987002E+01
C    7.5686707635677948E+00   -1.1546430833029008E+01   -1.6453294913868419E+01
C    7.9313257063808358E+00   -1.1070348753253457E+01   -1.7785778135799642E+01
N    9.2233714858150506E+00   -1.1225815429499905E+01   -1.8218320384620963E+01
C    9.5061370947586283E+00   -1.0526494558403977E+01   -1.9369189831370704E+01
N    8.7816788414239646E+00   -9.5760307139649772E+00   -2.0102808763918137E+01
C    9.5991943592559270E+00   -9.2153827876787062E+00   -2.1216259704206546E+01
N    9.6052908649007307E+00   -7.9903129699174311E+00   -2.1839709404929408E+01
C    8.6684187363305227E+00   -7.0702596975947207E+00   -2.1404303107030838E+01
C    9.1222026139288701E+00   -5.6785301802877859E+00   -2.1402261594779283E+01
C    8.3718683359301522E+00   -4.9656927025388224E+00   -2.0412292713753928E+01
C    8.6835072994694134E+00   -3.6665273994393921E+00   -1.9890703505953290E+01
C    9.8782467781259999E+00   -3.1140010193051317E+00   -2.0513762513751189E+01
O    1.0271679710569158E+01   -1.8544061344785745E+00   -1.9980088355961016E+01
C    1.1503790550770530E+01   -2.2111524147427639E+00   -1.9187917452662084E+01
C    1.2036959222511518E+01   -8.4969747307155297E-01   -1.8562424528864362E+01
O    1.2774911129029986E+01    5.7580843989793476E-02   -1.9516983216200035E+01
C    1.1621383603962434E+01    5.2960699187692817E-01   -2.0377688145727724E+01
C    1.2158814432697927E+01    1.7280954799739043E+00   -2.1245347903946133E+01
C    1.0994739713786585E+01    2.2683099699437830E+00   -2.2159259831168157E+01
C    1.1485913677711171E+01    2.9030201656082015E+00   -2.3510778475055719E+01
C    1.0233987294317551E+01    3.1423576568104519E+00   -2.4426574101158678E+01
C    1.0584694432147350E+01    3.7595067424820838E+00   -2.5824287584426415E+01
C    9.2686944157005247E+00    3.8358632501888015E+00   -2.6674541164771995E+01
C    9.4765511537075362E+00    4.5446559230456520E+00   -2.8055650784900557E+01
C    8.1003346780383065E+00    4.6103601969220405E+00   -2.8803341703916541E+01
C    8.2217386094883533E+00    5.3947698481524702E+00   -3.0150614264693449E+01
C    6.8166007050495612E+00    5.5117226705074565E+00   -3.0829098768198708E+01
C    6.8767743496822868E+00    6.3537065099676182E+00   -3.2152224083459004E+01
C    1.3146236383996834E+01   -1.2507483039876599E+00   -1.7507755984112919E+01
C    1.0599288716329511E+01   -3.7913563834741084E+00   -2.1631540865610948E+01
C    1.0233229240929653E+01   -5.1180855847748932E+00   -2.2107872241452920E+01
O    1.1773812612382327E+01   -3.2102778759939445E+00   -2.2184372618790167E+01
C    1.1309799733089900E+01   -2.4618913484308753E+00   -2.3396723106813560E+01
C    1.2643913865132175E+01   -2.0591252276444267E+00   -2.4157800451552873E+01
O    1.3425299729877604E+01   -1.0563263851162479E+00   -2.3341196678452672E+01
C    1.4386992058661887E+01   -1.9701562993922970E+00   -2.2608492575668937E+01
C    1.5282939467069593E+01   -9.6123612829265814E-01   -2.1798303418605741E+01
C    1.6141127554327738E+01   -1.6612701691954379E+00   -2.0683285704601790E+01
C    1.6457495537669917E+01   -6.6235720755579952E-01   -1.9512159592619120E+01
C    1.7067378007804201E+01   -1.4413522053315018E+00   -1.8295758252712975E+01
C    1.7276755458188120E+01   -5.0069065042858141E-01   -1.7056424395557112E+01
C    1.7542758436697547E+01   -1.3676454932683439E+00   -1.5776518048819131E+01
C    1.8066712357425324E+01   -4.9957047844585206E-01   -1.4580867525550197E+01
C    1.8401015055000070E+01   -1.4407538781101394E+00   -1.3370570142606528E+01
C    1.9320968314681085E+01   -7.2041792537813565E-01   -1.2329083527722494E+01
C    1.9669264443873342E+01   -1.7045409155003242E+00   -1.1162468912450215E+01
C    2.0703880354510840E+01   -1.0839488373371626E+00   -1.0157047339612674E+01
C    1.2193966857974040E+01   -1.2612007649463544E+00   -2.5442412842535898E+01
C    1.0915105447405667E+01   -9.8379057245528063E+00   -2.1039690200934476E+01
C    1.0876704648504486E+01   -1.0588331673949995E+01   -1.9825122379355530E+01
C    1.2001249155172829E+01   -1.1050403817055463E+01   -1.9065010440290557E+01
C    1.3257320330428399E+01   -1.0725674077266945E+01   -1.9723669197890207E+01
C    1.3307924724614885E+01   -1.0128814303545054E+01   -2.1091916064979021E+01
C    1.2120110960251386E+01   -9.6378327688257688E+00   -2.1787622298656199E+01
O    1.4551976430104011E+01   -9.8224649794901495E+00   -2.1716414866871954E+01
C    1.5027758999317367E+01   -1.1123379755646463E+01   -2.2298136646564682E+01
C    1.6443846870255356E+01   -1.0786850474093944E+01   -2.2931553072635335E+01
O    1.7443020963337545E+01   -1.0616182189451935E+01   -2.1812328393990011E+01
C    1.7530348146170443E+01   -9.1099912310634199E+00   -2.1717849971064251E+01
C    1.8706661586398081E+01   -8.8498519649329008E+00   -2.0703121699336485E+01
C    1.8729417396714464E+01   -7.3524891770467056E+00   -2.0238290918810169E+01
C    1.9954501080422077E+01   -7.0523805721122246E+00   -1.9299769943910189E+01
C    1.9797653988509943E+01   -5.6094696748624644E+00   -1.8700607028860560E+01
C    2.1014553955561567E+01   -5.1676161916493584E+00   -1.7811537736764365E+01
C    2.0782463847142715E+01   -3.6890542556798964E+00   -1.7332956898538523E+01
C    2.1916985470183366E+01   -3.1717777806907055E+00   -1.6378481159428052E+01
C    2.1690287726979072E+01   -1.6401657271409544E+00   -1.6106082828631074E+01
C    2.2736775911072158E+01   -1.0745538264607630E+00   -1.5083521512510298E+01
C    2.2582628248071856E+01    4.7996724351418019E-01   -1.4949841648306785E+01
C    2.3592549065815120E+01    1.0776195490478151E+00   -1.3902827384222034E+01
C    1.6920710378890657E+01   -1.2066944753508919E+01   -2.3717720304087269E+01
O    1.4424758746030628E+01   -1.1042480361415086E+01   -1.8971538206216668E+01
C    1.4842137389388901E+01   -9.6890588047408528E+00   -1.8446774683318939E+01
C    1.5962314372234431E+01   -9.9755023666156823E+00   -1.7352530078761880E+01
O    1.7317946588358559E+01   -1.0405938440640780E+01   -1.7848432888383805E+01
C    1.6958860582897515E+01   -1.1786072596239030E+01   -1.8352545485356512E+01
C    1.8319153337669078E+01   -1.2559701143877129E+01   -1.8505138307854313E+01
C    1.8088935668932653E+01   -1.4033308557930475E+01   -1.9024469785032995E+01
C    1.8981521059463120E+01   -1.4407441804514907E+01   -2.0261472008921938E+01
C    1.8441544062478410E+01   -1.5728177406883013E+01   -2.0913731456265904E+01
C    1.9351325921076466E+01   -1.6219072234536004E+01   -2.2091819029914809E+01
C    1.8676572739202989E+01   -1.7444512695325614E+01   -2.2801755327343951E+01
C    1.9611581180135577E+01   -1.8070919040908123E+01   -2.3891193225581429E+01
C    1.8888089754055869E+01   -1.9281469865885903E+01   -2.4576575981727572E+01
C    1.9834947008779192E+01   -1.9980313614301703E+01   -2.5608533755795584E+01
C    1.9110368787332852E+01   -2.1194089650044063E+01   -2.6279076656811281E+01
C    2.0064764028990894E+01   -2.1967530012146746E+01   -2.7251197650425460E+01
C    1.6277202298975784E+01   -8.5799115670903667E+00   -1.6675178729875437E+01
N    6.8536166431351564E+00   -1.0376359042709542E+01   -1.8385960061720109E+01
O    8.3850853358880482E+00   -1.2478366564251749E+01   -1.2943583695768806E+01
C    9.3677700348987187E+00   -1.3604838703190461E+01   -1.3082088789909912E+01
C    1.0392906057578221E+01   -1.3342290221240837E+01   -1.1890698517898549E+01
O    9.6456777331858934E+00   -1.3322679757109691E+01   -1.0582304110490009E+01
C    9.5897921201300580E+00   -1.1837648946125862E+01   -1.0287346401338379E+01
C    8.7044458686713426E+00   -1.1783306145124616E+01   -8.9870012908731987E+00
C    8.2801487067466830E+00   -1.0332067307007659E+01   -8.5648980025726029E+00
C    7.4034417143324003E+00   -1.0402652241649589E+01   -7.2585991280928859E+00
C    6.7134623570693401E+00   -9.0235091216504024E+00   -6.9488908368968731E+00
C    5.7907920051576118E+00   -9.1525288265289095E+00   -5.6817834813054722E+00
C    4.9741074782305557E+00   -7.8372787167433495E+00   -5.4257038652841389E+00
C    4.0651517512876207E+00   -7.9738456392580339E+00   -4.1520228154508558E+00
C    3.2121901775677535E+00   -6.6724179707320994E+00   -3.9518026048961081E+00
C    2.3902878905804683E+00   -6.7354713946209843E+00   -2.6202204746978111E+00
C    1.4866756974819266E+00   -5.4641723780344496E+00   -2.4689896435392891E+00
C    8.2561330073892780E-01   -5.4104754265994153E+00   -1.0467630865393946E+00
C    1.1342265941123721E+01   -1.4604576793457085E+01   -1.1822707987989798E+01
O    4.3871602648199941E+00   -8.4589583591885660E+00   -2.0693224643875340E+01
O    5.0848554077129533E+00   -1.0930585682853744E+01   -2.0431120101204886E+01
O    6.2541426445396429E+00   -8.3150131967036103E+00   -2.2389484836301222E+01
O    7.1832028535187975E+00   -1.0758601355620408E+01   -2.1815216619778660E+01
C   -4.3432940023755129E-01   -5.9025448398626477E+00   -1.2633987209633085E+01
H    4.7212778317839077E-01    1.3535904439234023E+00    3.4346544423931946E+00
H    1.9121749920162050E+00    1.6078444945863559E+00    2.1671248015638032E+00
H    3.7773903749255305E-01    2.7930290653058423E+00    2.1702452769958613E+00
H   -9.4644708558552532E-02   -3.3343999138608499E-01    1.8450697603812356E+00
H   -1.0503734579169557E+00    1.2111532113391286E+00    1.0870524409232296E+00
H    8.4356438319679705E-01    1.6141410196612673E+00   -5.2024091244270809E-01
H    1.8416933260489661E+00    1.0050614152603038E-01    2.6982903489468529E-01
H   -6.1914490354418608E-02   -1.4731551803772502E+00   -4.4330393408740693E-01
H   -9.5026547926248572E-01    5.6642370328068868E-02   -1.3266312438225147E+00
H    1.0966932113718295E+00    4.0096357629177110E-01   -2.7843563814096099E+00
H    1.9828384640055825E+00   -1.1240314571899837E+00   -1.9027137792083819E+00
H    1.6109200372427210E-01   -2.6789046677345296E+00   -2.7695058086260795E+00
H   -6.8682856752480015E-01   -1.1391310352323216E+00   -3.6845856785841691E+00
H    1.3965903273215929E+00   -7.9910364743972850E-01   -5.0698275872899279E+00
H    2.2766657901573413E+00   -2.2979542313128585E+00   -4.1330743663318792E+00
H    4.7037248974185780E-01   -3.8779396689600674E+00   -4.9919408622141095E+00
H   -3.3986512172419603E-01   -2.3707251175258475E+00   -5.9867728350940652E+00
H    1.6389397926347617E+00   -2.1557501428882753E+00   -7.4489157884722070E+00
H    2.6567127272163633E+00   -3.4415523224836146E+00   -6.3464588184609063E+00
H    1.2765007310118559E+00   -5.3166694395759908E+00   -7.0708968984834462E+00
H   -9.9686629255449841E-02   -4.1193020017633408E+00   -7.8404639335822299E+00
H    1.5727471850673940E+00   -3.3947025236530202E+00   -9.6289181774797825E+00
H    2.8952184931704910E+00   -4.6404669191723764E+00   -8.8806912370986382E+00
H    1.5825740914862532E+00   -6.5829920407697404E+00   -9.5598929478685761E+00
H   -1.6166009298138301E-02   -5.4986485657386268E+00   -9.9031954326210805E+00
H    1.0652604105380055E+00   -7.3812525053985478E+00   -1.1838376373213519E+01
H    1.4171927076333990E+00   -6.8920251164391164E+00   -1.4392206153731836E+01
H    1.8995978200082966E+00   -5.0553754020925004E+00   -1.3932821555678599E+01
H    3.2885642589473369E+00   -8.6860429421534970E+00   -1.5179250017651876E+01
H    6.1380813208436704E+00   -4.2290899657136780E+00   -1.6379287472154019E+01
H    5.5410905551282736E+00   -5.5610989881595918E+00   -1.2162099942321355E+01
H    6.9548696224945186E+00   -5.2008613724016612E+00   -1.3489003272809230E+01
H    7.0137283392822081E+00   -2.7537292095654213E+00   -1.2825299752292572E+01
H    5.3232235370221881E+00   -8.6825506752054038E-01   -1.2052254106645917E+01
H    4.6550315789047128E+00   -2.1995812171500799E+00   -1.3346983015634075E+01
H    2.9144298409263203E+00   -2.7202589038446532E+00   -1.1256504833918143E+01
H    3.3311392284780004E+00   -8.5641236102405649E-01   -1.0780106100764527E+01
H    2.6355586733633150E+00   -7.7713795780156830E-02   -1.3068340252635233E+01
H    2.3013130618126083E+00   -1.9544869302882069E+00   -1.3619669983758643E+01
H    5.4780018489965454E-01   -2.0820586360386732E+00   -1.1677294811121184E+01
H    7.6649139177889702E-01   -1.2868955732660639E-01   -1.1469520782643832E+01
H    1.2119177072815743E-01    1.8463937625301383E-01   -1.3926866664234433E+01
H   -1.7293406491963154E-01   -1.7620298353529320E+00   -1.4071796360439322E+01
H   -1.9437383753373330E+00   -1.6222685032086019E+00   -1.2254389405051876E+01
H   -1.6573170545232179E+00    3.2410761785961006E-01   -1.2136632931733004E+01
H   -2.3783345279453818E+00    5.7359048369353893E-01   -1.4562111530436248E+01
H   -2.6894617559459535E+00   -1.3726339703371881E+00   -1.4660909071164701E+01
H   -4.4326270938397903E+00   -1.2187414932852156E+00   -1.2864241046388555E+01
H   -4.0696480131043913E+00    7.0654191351960682E-01   -1.2639988427622372E+01
H   -4.7997288445030009E+00    1.0999361628135726E+00   -1.5057873099009996E+01
H   -5.2357375511001605E+00   -8.2142577311032783E-01   -1.5214053281514413E+01
H   -6.9552382394944443E+00   -6.1434463964529662E-01   -1.3401835385622260E+01
H   -6.4640774179329421E+00    1.2746276877785117E+00   -1.3113445017749024E+01
H   -7.1486406912675209E+00    1.7829917484278039E+00   -1.5501293389270316E+01
H   -7.6981815993972234E+00   -7.5500884700308066E-02   -1.5733859603039807E+01
H   -8.9174288774348032E+00    1.1487309761334132E+00   -1.3192223453889858E+01
H   -9.3136302000391549E+00    2.2303862974563797E+00   -1.4751900019457226E+01
H   -9.8173242979757216E+00    3.6746879072091915E-01   -1.4735672085934297E+01
H    7.5300330088600314E+00   -5.1903681564097086E+00   -1.0917341976512860E+01
H    8.5714528497689138E+00   -3.5758468469271620E+00   -1.1202921813723078E+01
H    7.1230971894818138E+00   -3.5802748427048230E+00   -9.9498441867644143E+00
H    4.2868331322105249E+00   -1.1288903192016299E+01   -1.5049447976123480E+01
H    6.6674466095633687E+00   -1.1311907744883879E+01   -1.1615824538171708E+01
H    4.9377777515217671E+00   -1.0666425001105216E+01   -1.2288647026443924E+01
H    3.8808887443622857E+00   -1.2842716577172295E+01   -1.1201326676993400E+01
H    4.8481429602826038E+00   -1.5036698889387681E+01   -1.0836260225682560E+01
H    6.4064888694872364E+00   -1.4254268831214819E+01   -1.1761073305784105E+01
H    7.7898611348619431E+00   -1.4740335335282518E+01   -9.5867422445430535E+00
H    6.2366314650535477E+00   -1.5770368048190210E+01   -8.9285906748703550E+00
H    6.3981097531912159E+00   -1.7383827207267885E+01   -1.0764423719125240E+01
H    7.6743652038086632E+00   -1.6245559052646492E+01   -1.1751575510589644E+01
H    9.3536742867821179E+00   -1.6618242598255041E+01   -9.7781155003545042E+00
H    8.0972988911764059E+00   -1.7973837390374310E+01   -9.0818415450815522E+00
H    8.2427201091421534E+00   -1.9265758138965822E+01   -1.1232127647506884E+01
H    9.4140559136813522E+00   -1.7885167474886671E+01   -1.2007120856964299E+01
H    1.1158626214793854E+01   -1.8399459643252541E+01   -1.0203405623565706E+01
H    9.9949934771534750E+00   -1.9843916203441491E+01   -9.5303180851637279E+00
H    1.0074299932992190E+01   -2.0955377967457860E+01   -1.1825557210647279E+01
H    1.1283166946151233E+01   -1.9531559129482581E+01   -1.2457324336256974E+01
H    1.3006469305929523E+01   -2.0213401174009960E+01   -1.0741251326545948E+01
H    1.1791367804313237E+01   -2.1617045271696181E+01   -1.0067714693848043E+01
H    1.1803642258764958E+01   -2.2696261498113532E+01   -1.2394268506820687E+01
H    1.3106417716526487E+01   -2.1333383511252933E+01   -1.2988784484924627E+01
H    1.4760316654178592E+01   -2.2129248821331885E+01   -1.1262326538943771E+01
H    1.3451612949279516E+01   -2.3454686069268345E+01   -1.0600999105250624E+01
H    1.3438383547112595E+01   -2.4545415060164224E+01   -1.2898893272067543E+01
H    1.4810090171325401E+01   -2.3273018656765469E+01   -1.3493624087085514E+01
H    1.5432970060157199E+01   -2.4772620261385281E+01   -1.0817765152179962E+01
H    1.5293676787299580E+01   -2.5900279428878378E+01   -1.2385682681170294E+01
H    1.6529318821489127E+01   -2.4431218023287709E+01   -1.2377745453084151E+01
H    4.5800569589237945E+00   -1.1601926305324255E+01   -8.6363315136199361E+00
H    5.0865852086316936E+00   -1.0197923756704286E+01   -9.8566894864189241E+00
H    3.2702718520246981E+00   -1.0905015576074756E+01   -9.8594581174511813E+00
H    9.6050485524583191E+00   -1.2226892549651653E+01   -1.5695760925266272E+01
H    8.0128304611799415E+00   -3.1474403153807486E+00   -1.9067554149776146E+01
H    1.1208712755762766E+01   -2.9629504301962353E+00   -1.8297494620345514E+01
H    1.2368034113289481E+01   -2.6984231388572741E+00   -1.9856474532370424E+01
H    1.1078624026004135E+01   -3.9874201379435531E-01   -1.8007720612392692E+01
H    1.1295871245011215E+01   -3.1290619431560213E-01   -2.1156292602036036E+01
H    1.0680488458844652E+01    9.4718473488646338E-01   -1.9768314782340898E+01
H    1.2474714674969960E+01    2.6037458904328452E+00   -2.0518579744448957E+01
H    1.3028205563024171E+01    1.3413778050006744E+00   -2.1941100017630021E+01
H    1.0291067183326556E+01    1.3670070541182417E+00   -2.2440287711759968E+01
H    1.0428121039723928E+01    3.1252600763452882E+00   -2.1577377320158970E+01
H    1.1982402980876989E+01    3.9518480034526626E+00   -2.3292634850980065E+01
H    1.2201331725360573E+01    2.1386670056865116E+00   -2.4052667995755225E+01
H    9.7259109840790270E+00    2.0972348423880902E+00   -2.4623895267290834E+01
H    9.5181554234574666E+00    3.9034473740948785E+00   -2.3878941802631765E+01
H    1.0986106044533392E+01    4.8574728955734763E+00   -2.5667473918670552E+01
H    1.1344298617522265E+01    3.0468016366050881E+00   -2.6377661250603804E+01
H    8.9134410503287995E+00    2.7331558141583212E+00   -2.6894603301438629E+01
H    8.4763183544639222E+00    4.4648992890198969E+00   -2.6069088664200073E+01
H    9.8433048714818696E+00    5.6484977681205617E+00   -2.7861539746067905E+01
H    1.0220256621462399E+01    3.9006611103260571E+00   -2.8706035223081823E+01
H    7.7653537887551387E+00    3.5099180315913263E+00   -2.9063176926610780E+01
H    7.3321630746629500E+00    5.1872696872821749E+00   -2.8120166069165087E+01
H    8.5872534999640724E+00    6.4916878645961802E+00   -2.9922520956726963E+01
H    8.9214710416006415E+00    4.7955463163302774E+00   -3.0886005185052682E+01
H    6.4467113770764977E+00    4.4259472284287869E+00   -3.1107931322433853E+01
H    6.0870191987896369E+00    6.0572375091778863E+00   -3.0079758054620513E+01
H    6.8986206625375903E+00    5.6275564336890662E+00   -3.3084644756789793E+01
H    5.9015228959031774E+00    7.0219150206603604E+00   -3.2220068125810855E+01
H    7.8374745221015392E+00    7.0400965458786660E+00   -3.2144379841694374E+01
H    1.2743332887988839E+01   -1.1220459825457383E+00   -1.6401326700928706E+01
H    1.3561121256300929E+01   -2.3461937235252153E+00   -1.7661941492199155E+01
H    1.4035973203792137E+01   -4.8222962354228704E-01   -1.7666222235529592E+01
H    1.0775307956483086E+01   -5.7481587345966405E+00   -2.2945286262601385E+01
H    1.0610259476775626E+01   -3.1248382738052656E+00   -2.4113431935320293E+01
H    1.0724237456342369E+01   -1.4711780665465353E+00   -2.3063581096781448E+01
H    1.3138535831503848E+01   -3.0998125305379309E+00   -2.4461657975880826E+01
H    1.3839046731610750E+01   -2.6826348064790699E+00   -2.1821343297826285E+01
H    1.5115539551484858E+01   -2.5995011011288560E+00   -2.3324115591436161E+01
H    1.6024445967243480E+01   -4.5388167119720174E-01   -2.2564325800530739E+01
H    1.4546301956831584E+01   -2.0202314452612810E-01   -2.1276003393051440E+01
H    1.5522283445116720E+01   -2.5558170138329852E+00   -2.0234709407160203E+01
H    1.7172039886023569E+01   -1.9862031772282795E+00   -2.1157459540115195E+01
H    1.7266391190211248E+01    1.1323129991125241E-01   -1.9884665703386034E+01
H    1.5447631093583034E+01   -1.6860265112835349E-01   -1.9162862493477817E+01
H    1.6310057044024951E+01   -2.2873767159188296E+00   -1.7983102484862432E+01
H    1.8129409048855113E+01   -1.8532086678667510E+00   -1.8606146624176795E+01
H    1.8230584953023779E+01    1.6771866239939309E-01   -1.7244735531674994E+01
H    1.6289892280845571E+01    1.2380887145976044E-01   -1.6893574724182436E+01
H    1.6511636630525906E+01   -1.8393388639600488E+00   -1.5451850323422274E+01
H    1.8373437242432274E+01   -2.1608568016230776E+00   -1.6036603942702115E+01
H    1.9056356806045628E+01    4.4836927390927150E-02   -1.4915090963290835E+01
H    1.7206343847817429E+01    2.3355049433084440E-01   -1.4240263647363550E+01
H    1.7396559646135533E+01   -1.7218214528635627E+00   -1.2818563474003307E+01
H    1.8991296347918123E+01   -2.3752577958057617E+00   -1.3777775758447099E+01
H    2.0331907435484503E+01   -4.1581716132698610E-01   -1.2851868310263894E+01
H    1.8731422956334100E+01    1.8203406501573202E-01   -1.1850234431797325E+01
H    1.8680725460865343E+01   -1.9410261544657021E+00   -1.0563625648360688E+01
H    2.0154386896150406E+01   -2.6735457810928520E+00   -1.1628481985731357E+01
H    2.0348970919816850E+01   -1.3125434869082371E+00   -9.0507849138539491E+00
H    2.1761052808301280E+01   -1.5885162129540353E+00   -1.0317349192120336E+01
H    2.0775909787293291E+01    8.2766714919144030E-02   -1.0322398196787750E+01
H    1.1969030253291063E+01   -1.9778334966141422E+00   -2.6357060293553264E+01
H    1.1270938027726165E+01   -5.5377698145182219E-01   -2.5223218399325834E+01
H    1.3127064949220044E+01   -5.7838024288889223E-01   -2.5715961280670424E+01
H    1.1863874115528654E+01   -1.1604843874981308E+01   -1.8028193754446185E+01
H    1.2083228310872215E+01   -9.1170459348727135E+00   -2.2845979776764096E+01
H    1.5156679509050337E+01   -1.1962372777940692E+01   -2.1455686311075372E+01
H    1.4276464653787889E+01   -1.1494611380753808E+01   -2.3156760159143030E+01
H    1.6226782652642939E+01   -9.8956410420864511E+00   -2.3692269670430726E+01
H    1.7811434634288847E+01   -8.5599909341134808E+00   -2.2743971474211261E+01
H    1.6530948607492558E+01   -8.6567936661876033E+00   -2.1241660546723910E+01
H    1.8508161563421840E+01   -9.5331720173348682E+00   -1.9760092501667735E+01